********************************************************************************
Field Output Report, written Wed Apr 16 15:17:29 2025

Source 1
---------

   ODB: C:/lnms/Vid/cross-hole/cross-hole-U.odb
   Step: loading
   Frame: Increment      0: Step Time =    0.000

Loc 1 : Integration point values from source 1

Output sorted by column "Element Label".

Field Output reported at integration points for region: SPECIMEN-1.Region_1

          Element              Int            S.S11            S.S22            S.S33            S.S12
            Label               Pt           @Loc 1           @Loc 1           @Loc 1           @Loc 1
-------------------------------------------------------------------------------------------------------
                1                1               0.               0.               0.               0.
                1                2               0.               0.               0.               0.
                1                3               0.               0.               0.               0.
                1                4               0.               0.               0.               0.
                2                1               0.               0.               0.               0.
                2                2               0.               0.               0.               0.
                2                3               0.               0.               0.               0.
                2                4               0.               0.               0.               0.
                3                1               0.               0.               0.               0.
                3                2               0.               0.               0.               0.
                3                3               0.               0.               0.               0.
                3                4               0.               0.               0.               0.
                4                1               0.               0.               0.               0.
                4                2               0.               0.               0.               0.
                4                3               0.               0.               0.               0.
                4                4               0.               0.               0.               0.
                5                1               0.               0.               0.               0.
                5                2               0.               0.               0.               0.
                5                3               0.               0.               0.               0.
                5                4               0.               0.               0.               0.
                6                1               0.               0.               0.               0.
                6                2               0.               0.               0.               0.
                6                3               0.               0.               0.               0.
                6                4               0.               0.               0.               0.
                7                1               0.               0.               0.               0.
                7                2               0.               0.               0.               0.
                7                3               0.               0.               0.               0.
                7                4               0.               0.               0.               0.
                8                1               0.               0.               0.               0.
                8                2               0.               0.               0.               0.
                8                3               0.               0.               0.               0.
                8                4               0.               0.               0.               0.
                9                1               0.               0.               0.               0.
                9                2               0.               0.               0.               0.
                9                3               0.               0.               0.               0.
                9                4               0.               0.               0.               0.
               10                1               0.               0.               0.               0.
               10                2               0.               0.               0.               0.
               10                3               0.               0.               0.               0.
               10                4               0.               0.               0.               0.
               11                1               0.               0.               0.               0.
               11                2               0.               0.               0.               0.
               11                3               0.               0.               0.               0.
               11                4               0.               0.               0.               0.
               12                1               0.               0.               0.               0.
               12                2               0.               0.               0.               0.
               12                3               0.               0.               0.               0.
               12                4               0.               0.               0.               0.
               13                1               0.               0.               0.               0.
               13                2               0.               0.               0.               0.
               13                3               0.               0.               0.               0.
               13                4               0.               0.               0.               0.
               14                1               0.               0.               0.               0.
               14                2               0.               0.               0.               0.
               14                3               0.               0.               0.               0.
               14                4               0.               0.               0.               0.
               15                1               0.               0.               0.               0.
               15                2               0.               0.               0.               0.
               15                3               0.               0.               0.               0.
               15                4               0.               0.               0.               0.
               16                1               0.               0.               0.               0.
               16                2               0.               0.               0.               0.
               16                3               0.               0.               0.               0.
               16                4               0.               0.               0.               0.
               17                1               0.               0.               0.               0.
               17                2               0.               0.               0.               0.
               17                3               0.               0.               0.               0.
               17                4               0.               0.               0.               0.
               18                1               0.               0.               0.               0.
               18                2               0.               0.               0.               0.
               18                3               0.               0.               0.               0.
               18                4               0.               0.               0.               0.
               19                1               0.               0.               0.               0.
               19                2               0.               0.               0.               0.
               19                3               0.               0.               0.               0.
               19                4               0.               0.               0.               0.
               20                1               0.               0.               0.               0.
               20                2               0.               0.               0.               0.
               20                3               0.               0.               0.               0.
               20                4               0.               0.               0.               0.
               21                1               0.               0.               0.               0.
               21                2               0.               0.               0.               0.
               21                3               0.               0.               0.               0.
               21                4               0.               0.               0.               0.
               22                1               0.               0.               0.               0.
               22                2               0.               0.               0.               0.
               22                3               0.               0.               0.               0.
               22                4               0.               0.               0.               0.
               23                1               0.               0.               0.               0.
               23                2               0.               0.               0.               0.
               23                3               0.               0.               0.               0.
               23                4               0.               0.               0.               0.
               24                1               0.               0.               0.               0.
               24                2               0.               0.               0.               0.
               24                3               0.               0.               0.               0.
               24                4               0.               0.               0.               0.
               25                1               0.               0.               0.               0.
               25                2               0.               0.               0.               0.
               25                3               0.               0.               0.               0.
               25                4               0.               0.               0.               0.
               26                1               0.               0.               0.               0.
               26                2               0.               0.               0.               0.
               26                3               0.               0.               0.               0.
               26                4               0.               0.               0.               0.
               27                1               0.               0.               0.               0.
               27                2               0.               0.               0.               0.
               27                3               0.               0.               0.               0.
               27                4               0.               0.               0.               0.
               28                1               0.               0.               0.               0.
               28                2               0.               0.               0.               0.
               28                3               0.               0.               0.               0.
               28                4               0.               0.               0.               0.
               29                1               0.               0.               0.               0.
               29                2               0.               0.               0.               0.
               29                3               0.               0.               0.               0.
               29                4               0.               0.               0.               0.
               30                1               0.               0.               0.               0.
               30                2               0.               0.               0.               0.
               30                3               0.               0.               0.               0.
               30                4               0.               0.               0.               0.
               31                1               0.               0.               0.               0.
               31                2               0.               0.               0.               0.
               31                3               0.               0.               0.               0.
               31                4               0.               0.               0.               0.
               32                1               0.               0.               0.               0.
               32                2               0.               0.               0.               0.
               32                3               0.               0.               0.               0.
               32                4               0.               0.               0.               0.
               33                1               0.               0.               0.               0.
               33                2               0.               0.               0.               0.
               33                3               0.               0.               0.               0.
               33                4               0.               0.               0.               0.
               34                1               0.               0.               0.               0.
               34                2               0.               0.               0.               0.
               34                3               0.               0.               0.               0.
               34                4               0.               0.               0.               0.
               35                1               0.               0.               0.               0.
               35                2               0.               0.               0.               0.
               35                3               0.               0.               0.               0.
               35                4               0.               0.               0.               0.
               36                1               0.               0.               0.               0.
               36                2               0.               0.               0.               0.
               36                3               0.               0.               0.               0.
               36                4               0.               0.               0.               0.
               37                1               0.               0.               0.               0.
               37                2               0.               0.               0.               0.
               37                3               0.               0.               0.               0.
               37                4               0.               0.               0.               0.
               38                1               0.               0.               0.               0.
               38                2               0.               0.               0.               0.
               38                3               0.               0.               0.               0.
               38                4               0.               0.               0.               0.
               39                1               0.               0.               0.               0.
               39                2               0.               0.               0.               0.
               39                3               0.               0.               0.               0.
               39                4               0.               0.               0.               0.
               40                1               0.               0.               0.               0.
               40                2               0.               0.               0.               0.
               40                3               0.               0.               0.               0.
               40                4               0.               0.               0.               0.


********************************************************************************
Field Output Report, written Wed Apr 16 15:17:35 2025

Source 1
---------

   ODB: C:/lnms/Vid/cross-hole/cross-hole-U.odb
   Step: loading
   Frame: Increment      1: Step Time =   0.1000

Loc 1 : Integration point values from source 1

Output sorted by column "Element Label".

Field Output reported at integration points for region: SPECIMEN-1.Region_1

          Element              Int            S.S11            S.S22            S.S33            S.S12
            Label               Pt           @Loc 1           @Loc 1           @Loc 1           @Loc 1
-------------------------------------------------------------------------------------------------------
                1                1       131.476654       93.4147568               0.      -58.5646095
                1                2       110.790184       78.8707657               0.      -67.7651825
                1                3       114.257782       90.5730820               0.      -60.7689438
                1                4       93.4855347       76.7666016               0.      -68.7740555
                2                1       84.5521088       86.7673340               0.      -69.7642822
                2                2       93.3998947       115.273499               0.      -68.9320602
                2                3       96.0297928       111.609894               0.      -61.8086891
                2                4       104.478996       139.064117               0.      -59.0807953
                3                1       64.9343185       128.823883               0.      -34.8121872
                3                2       71.7725830       142.973709               0.      -15.2054195
                3                3       38.9661827       75.2200089               0.      -52.6158867
                3                4       55.9794579       109.958488               0.      -31.0078335
                4                1       109.433571       95.7175293               0.      -17.9272995
                4                2       119.131836       75.7560272               0.      -9.74143410
                4                3       114.879051       88.9561920               0.      -20.0212193
                4                4       120.900757       71.6875534               0.      -14.5636530
                5                1       115.690567       34.3677139               0.      -24.8968868
                5                2       142.237930       59.1086044               0.      -15.0837374
                5                3       83.5333633       22.7803726               0.      -50.0129814
                5                4       124.726334       50.8146362               0.      -38.0808678
                6                1       139.064117       104.478996               0.      -59.0807953
                6                2       115.273499       93.3998947               0.      -68.9320602
                6                3       111.609894       96.0297928               0.      -61.8086891
                6                4       86.7673340       84.5521088               0.      -69.7642822
                7                1       76.7666016       93.4855347               0.      -68.7740555
                7                2       78.8707657       110.790184               0.      -67.7651825
                7                3       90.5730820       114.257782               0.      -60.7689438
                7                4       93.4147568       131.476654               0.      -58.5646095
                8                1       50.8146362       124.726334               0.      -38.0808678
                8                2       59.1086044       142.237930               0.      -15.0837374
                8                3       22.7803726       83.5333633               0.      -50.0129814
                8                4       34.3677139       115.690567               0.      -24.8968868
                9                1       71.6875534       120.900757               0.      -14.5636530
                9                2       75.7560272       119.131836               0.      -9.74143410
                9                3       88.9561920       114.879051               0.      -20.0212193
                9                4       95.7175293       109.433571               0.      -17.9272995
               10                1       109.958488       55.9794579               0.      -31.0078335
               10                2       142.973709       71.7725830               0.      -15.2054195
               10                3       75.2200089       38.9661827               0.      -52.6158867
               10                4       128.823883       64.9343185               0.      -34.8121872
               11                1       93.4147568       131.476654               0.       58.5646095
               11                2       78.8707657       110.790184               0.       67.7651825
               11                3       90.5730820       114.257782               0.       60.7689438
               11                4       76.7666016       93.4855347               0.       68.7740555
               12                1       86.7673340       84.5521088               0.       69.7642822
               12                2       115.273499       93.3998947               0.       68.9320602
               12                3       111.609894       96.0297928               0.       61.8086891
               12                4       139.064117       104.478996               0.       59.0807953
               13                1       128.823883       64.9343185               0.       34.8121872
               13                2       142.973709       71.7725830               0.       15.2054195
               13                3       75.2200089       38.9661827               0.       52.6158867
               13                4       109.958488       55.9794579               0.       31.0078335
               14                1       95.7175293       109.433571               0.       17.9272995
               14                2       75.7560272       119.131836               0.       9.74143410
               14                3       88.9561920       114.879051               0.       20.0212193
               14                4       71.6875534       120.900757               0.       14.5636530
               15                1       34.3677139       115.690567               0.       24.8968868
               15                2       59.1086044       142.237930               0.       15.0837374
               15                3       22.7803726       83.5333633               0.       50.0129814
               15                4       50.8146362       124.726334               0.       38.0808678
               16                1       104.478996       139.064117               0.       59.0807953
               16                2       93.3998947       115.273499               0.       68.9320602
               16                3       96.0297928       111.609894               0.       61.8086891
               16                4       84.5521088       86.7673340               0.       69.7642822
               17                1       93.4855347       76.7666016               0.       68.7740555
               17                2       110.790184       78.8707657               0.       67.7651825
               17                3       114.257782       90.5730820               0.       60.7689438
               17                4       131.476654       93.4147568               0.       58.5646095
               18                1       124.726334       50.8146362               0.       38.0808678
               18                2       142.237930       59.1086044               0.       15.0837374
               18                3       83.5333633       22.7803726               0.       50.0129814
               18                4       115.690567       34.3677139               0.       24.8968868
               19                1       120.900757       71.6875534               0.       14.5636530
               19                2       119.131836       75.7560272               0.       9.74143410
               19                3       114.879051       88.9561920               0.       20.0212193
               19                4       109.433571       95.7175293               0.       17.9272995
               20                1       55.9794579       109.958488               0.       31.0078335
               20                2       71.7725830       142.973709               0.       15.2054195
               20                3       38.9661827       75.2200089               0.       52.6158867
               20                4       64.9343185       128.823883               0.       34.8121872
               21                1       139.064117       104.478996               0.      -59.0807953
               21                2       115.273499       93.3998947               0.      -68.9320602
               21                3       111.609894       96.0297928               0.      -61.8086891
               21                4       86.7673340       84.5521088               0.      -69.7642822
               22                1       76.7666016       93.4855347               0.      -68.7740555
               22                2       78.8707657       110.790184               0.      -67.7651825
               22                3       90.5730820       114.257782               0.      -60.7689438
               22                4       93.4147568       131.476654               0.      -58.5646095
               23                1       50.8146362       124.726334               0.      -38.0808678
               23                2       59.1086044       142.237930               0.      -15.0837374
               23                3       22.7803726       83.5333633               0.      -50.0129814
               23                4       34.3677139       115.690567               0.      -24.8968868
               24                1       71.6875534       120.900757               0.      -14.5636530
               24                2       75.7560272       119.131836               0.      -9.74143410
               24                3       88.9561920       114.879051               0.      -20.0212193
               24                4       95.7175293       109.433571               0.      -17.9272995
               25                1       109.958488       55.9794579               0.      -31.0078335
               25                2       142.973709       71.7725830               0.      -15.2054195
               25                3       75.2200089       38.9661827               0.      -52.6158867
               25                4       128.823883       64.9343185               0.      -34.8121872
               26                1       104.478996       139.064117               0.       59.0807953
               26                2       93.3998947       115.273499               0.       68.9320602
               26                3       96.0297928       111.609894               0.       61.8086891
               26                4       84.5521088       86.7673340               0.       69.7642822
               27                1       93.4855347       76.7666016               0.       68.7740555
               27                2       110.790184       78.8707657               0.       67.7651825
               27                3       114.257782       90.5730820               0.       60.7689438
               27                4       131.476654       93.4147568               0.       58.5646095
               28                1       124.726334       50.8146362               0.       38.0808678
               28                2       142.237930       59.1086044               0.       15.0837374
               28                3       83.5333633       22.7803726               0.       50.0129814
               28                4       115.690567       34.3677139               0.       24.8968868
               29                1       120.900757       71.6875534               0.       14.5636530
               29                2       119.131836       75.7560272               0.       9.74143410
               29                3       114.879051       88.9561920               0.       20.0212193
               29                4       109.433571       95.7175293               0.       17.9272995
               30                1       55.9794579       109.958488               0.       31.0078335
               30                2       71.7725830       142.973709               0.       15.2054195
               30                3       38.9661827       75.2200089               0.       52.6158867
               30                4       64.9343185       128.823883               0.       34.8121872
               31                1       93.4147568       131.476654               0.       58.5646095
               31                2       78.8707657       110.790184               0.       67.7651825
               31                3       90.5730820       114.257782               0.       60.7689438
               31                4       76.7666016       93.4855347               0.       68.7740555
               32                1       86.7673340       84.5521088               0.       69.7642822
               32                2       115.273499       93.3998947               0.       68.9320602
               32                3       111.609894       96.0297928               0.       61.8086891
               32                4       139.064117       104.478996               0.       59.0807953
               33                1       128.823883       64.9343185               0.       34.8121872
               33                2       142.973709       71.7725830               0.       15.2054195
               33                3       75.2200089       38.9661827               0.       52.6158867
               33                4       109.958488       55.9794579               0.       31.0078335
               34                1       95.7175293       109.433571               0.       17.9272995
               34                2       75.7560272       119.131836               0.       9.74143410
               34                3       88.9561920       114.879051               0.       20.0212193
               34                4       71.6875534       120.900757               0.       14.5636530
               35                1       34.3677139       115.690567               0.       24.8968868
               35                2       59.1086044       142.237930               0.       15.0837374
               35                3       22.7803726       83.5333633               0.       50.0129814
               35                4       50.8146362       124.726334               0.       38.0808678
               36                1       131.476654       93.4147568               0.      -58.5646095
               36                2       110.790184       78.8707657               0.      -67.7651825
               36                3       114.257782       90.5730820               0.      -60.7689438
               36                4       93.4855347       76.7666016               0.      -68.7740555
               37                1       84.5521088       86.7673340               0.      -69.7642822
               37                2       93.3998947       115.273499               0.      -68.9320602
               37                3       96.0297928       111.609894               0.      -61.8086891
               37                4       104.478996       139.064117               0.      -59.0807953
               38                1       64.9343185       128.823883               0.      -34.8121872
               38                2       71.7725830       142.973709               0.      -15.2054195
               38                3       38.9661827       75.2200089               0.      -52.6158867
               38                4       55.9794579       109.958488               0.      -31.0078335
               39                1       109.433571       95.7175293               0.      -17.9272995
               39                2       119.131836       75.7560272               0.      -9.74143410
               39                3       114.879051       88.9561920               0.      -20.0212193
               39                4       120.900757       71.6875534               0.      -14.5636530
               40                1       115.690567       34.3677139               0.      -24.8968868
               40                2       142.237930       59.1086044               0.      -15.0837374
               40                3       83.5333633       22.7803726               0.      -50.0129814
               40                4       124.726334       50.8146362               0.      -38.0808678


********************************************************************************
Field Output Report, written Wed Apr 16 15:17:38 2025

Source 1
---------

   ODB: C:/lnms/Vid/cross-hole/cross-hole-U.odb
   Step: loading
   Frame: Increment      2: Step Time =   0.2000

Loc 1 : Integration point values from source 1

Output sorted by column "Element Label".

Field Output reported at integration points for region: SPECIMEN-1.Region_1

          Element              Int            S.S11            S.S22            S.S33            S.S12
            Label               Pt           @Loc 1           @Loc 1           @Loc 1           @Loc 1
-------------------------------------------------------------------------------------------------------
                1                1       162.143433       112.523346               0.      -78.7190781
                1                2       138.645355       106.769684               0.      -86.9186935
                1                3       136.485046       99.5245667               0.      -79.4928894
                1                4       111.821022       92.5729599               0.      -86.7643509
                2                1       101.398857       106.481987               0.      -87.4024506
                2                2       120.010246       143.394608               0.      -89.2408371
                2                3       110.013191       134.004150               0.      -80.3226547
                2                4       127.262543       170.500580               0.      -80.2947845
                3                1       83.9608536       162.928680               0.      -43.3628044
                3                2       88.8737488       177.149918               0.      -24.2701092
                3                3       56.7830544       108.590286               0.      -52.1457367
                3                4       64.5497437       128.601776               0.      -33.6269341
                4                1       128.710800       114.210747               0.      -19.0615311
                4                2       134.925125       84.3344727               0.      -10.8621674
                4                3       138.054169       109.372864               0.      -23.8989582
                4                4       141.180115       82.8598251               0.      -18.5139465
                5                1       138.667175       39.2183266               0.      -27.5142612
                5                2       178.141998       67.5181046               0.      -24.1477699
                5                3       124.798950       39.9696388               0.      -47.4147797
                5                4       164.483978       67.1633301               0.      -44.8086014
                6                1       170.500580       127.262543               0.      -80.2947845
                6                2       143.394608       120.010246               0.      -89.2408371
                6                3       134.004150       110.013191               0.      -80.3226547
                6                4       106.481987       101.398857               0.      -87.4024506
                7                1       92.5729599       111.821022               0.      -86.7643509
                7                2       106.769684       138.645355               0.      -86.9186935
                7                3       99.5245667       136.485046               0.      -79.4928894
                7                4       112.523346       162.143433               0.      -78.7190781
                8                1       67.1633301       164.483978               0.      -44.8086014
                8                2       67.5181046       178.141998               0.      -24.1477699
                8                3       39.9696388       124.798950               0.      -47.4147797
                8                4       39.2183266       138.667175               0.      -27.5142612
                9                1       82.8598251       141.180115               0.      -18.5139465
                9                2       84.3344727       134.925125               0.      -10.8621674
                9                3       109.372864       138.054169               0.      -23.8989582
                9                4       114.210747       128.710800               0.      -19.0615311
               10                1       128.601776       64.5497437               0.      -33.6269341
               10                2       177.149918       88.8737488               0.      -24.2701092
               10                3       108.590286       56.7830544               0.      -52.1457367
               10                4       162.928680       83.9608536               0.      -43.3628044
               11                1       112.523346       162.143433               0.       78.7190781
               11                2       106.769684       138.645355               0.       86.9186935
               11                3       99.5245667       136.485046               0.       79.4928894
               11                4       92.5729599       111.821022               0.       86.7643509
               12                1       106.481987       101.398857               0.       87.4024506
               12                2       143.394608       120.010246               0.       89.2408371
               12                3       134.004150       110.013191               0.       80.3226547
               12                4       170.500580       127.262543               0.       80.2947845
               13                1       162.928680       83.9608536               0.       43.3628044
               13                2       177.149918       88.8737488               0.       24.2701092
               13                3       108.590286       56.7830544               0.       52.1457367
               13                4       128.601776       64.5497437               0.       33.6269341
               14                1       114.210747       128.710800               0.       19.0615311
               14                2       84.3344727       134.925125               0.       10.8621674
               14                3       109.372864       138.054169               0.       23.8989582
               14                4       82.8598251       141.180115               0.       18.5139465
               15                1       39.2183266       138.667175               0.       27.5142612
               15                2       67.5181046       178.141998               0.       24.1477699
               15                3       39.9696388       124.798950               0.       47.4147797
               15                4       67.1633301       164.483978               0.       44.8086014
               16                1       127.262543       170.500580               0.       80.2947845
               16                2       120.010246       143.394608               0.       89.2408371
               16                3       110.013191       134.004150               0.       80.3226547
               16                4       101.398857       106.481987               0.       87.4024506
               17                1       111.821022       92.5729599               0.       86.7643509
               17                2       138.645355       106.769684               0.       86.9186935
               17                3       136.485046       99.5245667               0.       79.4928894
               17                4       162.143433       112.523346               0.       78.7190781
               18                1       164.483978       67.1633301               0.       44.8086014
               18                2       178.141998       67.5181046               0.       24.1477699
               18                3       124.798950       39.9696388               0.       47.4147797
               18                4       138.667175       39.2183266               0.       27.5142612
               19                1       141.180115       82.8598251               0.       18.5139465
               19                2       134.925125       84.3344727               0.       10.8621674
               19                3       138.054169       109.372864               0.       23.8989582
               19                4       128.710800       114.210747               0.       19.0615311
               20                1       64.5497437       128.601776               0.       33.6269341
               20                2       88.8737488       177.149918               0.       24.2701092
               20                3       56.7830544       108.590286               0.       52.1457367
               20                4       83.9608536       162.928680               0.       43.3628044
               21                1       170.500580       127.262543               0.      -80.2947845
               21                2       143.394608       120.010246               0.      -89.2408371
               21                3       134.004150       110.013191               0.      -80.3226547
               21                4       106.481987       101.398857               0.      -87.4024506
               22                1       92.5729599       111.821022               0.      -86.7643509
               22                2       106.769684       138.645355               0.      -86.9186935
               22                3       99.5245667       136.485046               0.      -79.4928894
               22                4       112.523346       162.143433               0.      -78.7190781
               23                1       67.1633301       164.483978               0.      -44.8086014
               23                2       67.5181046       178.141998               0.      -24.1477699
               23                3       39.9696388       124.798950               0.      -47.4147797
               23                4       39.2183266       138.667175               0.      -27.5142612
               24                1       82.8598251       141.180115               0.      -18.5139465
               24                2       84.3344727       134.925125               0.      -10.8621674
               24                3       109.372864       138.054169               0.      -23.8989582
               24                4       114.210747       128.710800               0.      -19.0615311
               25                1       128.601776       64.5497437               0.      -33.6269341
               25                2       177.149918       88.8737488               0.      -24.2701092
               25                3       108.590286       56.7830544               0.      -52.1457367
               25                4       162.928680       83.9608536               0.      -43.3628044
               26                1       127.262543       170.500580               0.       80.2947845
               26                2       120.010246       143.394608               0.       89.2408371
               26                3       110.013191       134.004150               0.       80.3226547
               26                4       101.398857       106.481987               0.       87.4024506
               27                1       111.821022       92.5729599               0.       86.7643509
               27                2       138.645355       106.769684               0.       86.9186935
               27                3       136.485046       99.5245667               0.       79.4928894
               27                4       162.143433       112.523346               0.       78.7190781
               28                1       164.483978       67.1633301               0.       44.8086014
               28                2       178.141998       67.5181046               0.       24.1477699
               28                3       124.798950       39.9696388               0.       47.4147797
               28                4       138.667175       39.2183266               0.       27.5142612
               29                1       141.180115       82.8598251               0.       18.5139465
               29                2       134.925125       84.3344727               0.       10.8621674
               29                3       138.054169       109.372864               0.       23.8989582
               29                4       128.710800       114.210747               0.       19.0615311
               30                1       64.5497437       128.601776               0.       33.6269341
               30                2       88.8737488       177.149918               0.       24.2701092
               30                3       56.7830544       108.590286               0.       52.1457367
               30                4       83.9608536       162.928680               0.       43.3628044
               31                1       112.523346       162.143433               0.       78.7190781
               31                2       106.769684       138.645355               0.       86.9186935
               31                3       99.5245667       136.485046               0.       79.4928894
               31                4       92.5729599       111.821022               0.       86.7643509
               32                1       106.481987       101.398857               0.       87.4024506
               32                2       143.394608       120.010246               0.       89.2408371
               32                3       134.004150       110.013191               0.       80.3226547
               32                4       170.500580       127.262543               0.       80.2947845
               33                1       162.928680       83.9608536               0.       43.3628044
               33                2       177.149918       88.8737488               0.       24.2701092
               33                3       108.590286       56.7830544               0.       52.1457367
               33                4       128.601776       64.5497437               0.       33.6269341
               34                1       114.210747       128.710800               0.       19.0615311
               34                2       84.3344727       134.925125               0.       10.8621674
               34                3       109.372864       138.054169               0.       23.8989582
               34                4       82.8598251       141.180115               0.       18.5139465
               35                1       39.2183266       138.667175               0.       27.5142612
               35                2       67.5181046       178.141998               0.       24.1477699
               35                3       39.9696388       124.798950               0.       47.4147797
               35                4       67.1633301       164.483978               0.       44.8086014
               36                1       162.143433       112.523346               0.      -78.7190781
               36                2       138.645355       106.769684               0.      -86.9186935
               36                3       136.485046       99.5245667               0.      -79.4928894
               36                4       111.821022       92.5729599               0.      -86.7643509
               37                1       101.398857       106.481987               0.      -87.4024506
               37                2       120.010246       143.394608               0.      -89.2408371
               37                3       110.013191       134.004150               0.      -80.3226547
               37                4       127.262543       170.500580               0.      -80.2947845
               38                1       83.9608536       162.928680               0.      -43.3628044
               38                2       88.8737488       177.149918               0.      -24.2701092
               38                3       56.7830544       108.590286               0.      -52.1457367
               38                4       64.5497437       128.601776               0.      -33.6269341
               39                1       128.710800       114.210747               0.      -19.0615311
               39                2       134.925125       84.3344727               0.      -10.8621674
               39                3       138.054169       109.372864               0.      -23.8989582
               39                4       141.180115       82.8598251               0.      -18.5139465
               40                1       138.667175       39.2183266               0.      -27.5142612
               40                2       178.141998       67.5181046               0.      -24.1477699
               40                3       124.798950       39.9696388               0.      -47.4147797
               40                4       164.483978       67.1633301               0.      -44.8086014


********************************************************************************
Field Output Report, written Wed Apr 16 15:17:41 2025

Source 1
---------

   ODB: C:/lnms/Vid/cross-hole/cross-hole-U.odb
   Step: loading
   Frame: Increment      3: Step Time =   0.3000

Loc 1 : Integration point values from source 1

Output sorted by column "Element Label".

Field Output reported at integration points for region: SPECIMEN-1.Region_1

          Element              Int            S.S11            S.S22            S.S33            S.S12
            Label               Pt           @Loc 1           @Loc 1           @Loc 1           @Loc 1
-------------------------------------------------------------------------------------------------------
                1                1       195.129166       133.835114               0.      -95.5532455
                1                2       166.257126       129.375671               0.      -105.246552
                1                3       160.803757       114.371712               0.      -94.7123184
                1                4       130.468384       108.099152               0.      -103.213058
                2                1       118.027573       125.393509               0.      -103.668083
                2                2       143.525772       171.022278               0.      -107.998787
                2                3       126.903259       157.615921               0.      -95.9417953
                2                4       150.539459       203.229218               0.      -97.9952469
                3                1       100.226341       195.621201               0.      -52.3946114
                3                2       105.728462       212.111481               0.      -29.9838943
                3                3       65.0692291       125.949768               0.      -58.5675278
                3                4       72.2248611       145.837601               0.      -37.8942528
                4                1       148.692398       132.093307               0.      -21.5496902
                4                2       151.198013       94.0053482               0.      -12.1318541
                4                3       162.591324       129.190079               0.      -28.0027046
                4                4       162.592453       95.0717239               0.      -21.5892677
                5                1       160.691452       44.3195839               0.      -31.9130268
                5                2       214.442734       78.9595108               0.      -30.1106071
                5                3       147.848160       46.2371788               0.      -53.8045731
                5                4       199.389816       79.1990280               0.      -54.0791321
                6                1       203.229218       150.539459               0.      -97.9952469
                6                2       171.022278       143.525772               0.      -107.998787
                6                3       157.615921       126.903259               0.      -95.9417953
                6                4       125.393509       118.027573               0.      -103.668083
                7                1       108.099152       130.468384               0.      -103.213058
                7                2       129.375671       166.257126               0.      -105.246552
                7                3       114.371712       160.803757               0.      -94.7123184
                7                4       133.835114       195.129166               0.      -95.5532455
                8                1       79.1990280       199.389816               0.      -54.0791321
                8                2       78.9595108       214.442734               0.      -30.1106071
                8                3       46.2371788       147.848160               0.      -53.8045731
                8                4       44.3195839       160.691452               0.      -31.9130268
                9                1       95.0717239       162.592453               0.      -21.5892677
                9                2       94.0053482       151.198013               0.      -12.1318541
                9                3       129.190079       162.591324               0.      -28.0027046
                9                4       132.093307       148.692398               0.      -21.5496902
               10                1       145.837601       72.2248611               0.      -37.8942528
               10                2       212.111481       105.728462               0.      -29.9838943
               10                3       125.949768       65.0692291               0.      -58.5675278
               10                4       195.621201       100.226341               0.      -52.3946114
               11                1       133.835114       195.129166               0.       95.5532455
               11                2       129.375671       166.257126               0.       105.246552
               11                3       114.371712       160.803757               0.       94.7123184
               11                4       108.099152       130.468384               0.       103.213058
               12                1       125.393509       118.027573               0.       103.668083
               12                2       171.022278       143.525772               0.       107.998787
               12                3       157.615921       126.903259               0.       95.9417953
               12                4       203.229218       150.539459               0.       97.9952469
               13                1       195.621201       100.226341               0.       52.3946114
               13                2       212.111481       105.728462               0.       29.9838943
               13                3       125.949768       65.0692291               0.       58.5675278
               13                4       145.837601       72.2248611               0.       37.8942528
               14                1       132.093307       148.692398               0.       21.5496902
               14                2       94.0053482       151.198013               0.       12.1318541
               14                3       129.190079       162.591324               0.       28.0027046
               14                4       95.0717239       162.592453               0.       21.5892677
               15                1       44.3195839       160.691452               0.       31.9130268
               15                2       78.9595108       214.442734               0.       30.1106071
               15                3       46.2371788       147.848160               0.       53.8045731
               15                4       79.1990280       199.389816               0.       54.0791321
               16                1       150.539459       203.229218               0.       97.9952469
               16                2       143.525772       171.022278               0.       107.998787
               16                3       126.903259       157.615921               0.       95.9417953
               16                4       118.027573       125.393509               0.       103.668083
               17                1       130.468384       108.099152               0.       103.213058
               17                2       166.257126       129.375671               0.       105.246552
               17                3       160.803757       114.371712               0.       94.7123184
               17                4       195.129166       133.835114               0.       95.5532455
               18                1       199.389816       79.1990280               0.       54.0791321
               18                2       214.442734       78.9595108               0.       30.1106071
               18                3       147.848160       46.2371788               0.       53.8045731
               18                4       160.691452       44.3195839               0.       31.9130268
               19                1       162.592453       95.0717239               0.       21.5892677
               19                2       151.198013       94.0053482               0.       12.1318541
               19                3       162.591324       129.190079               0.       28.0027046
               19                4       148.692398       132.093307               0.       21.5496902
               20                1       72.2248611       145.837601               0.       37.8942528
               20                2       105.728462       212.111481               0.       29.9838943
               20                3       65.0692291       125.949768               0.       58.5675278
               20                4       100.226341       195.621201               0.       52.3946114
               21                1       203.229218       150.539459               0.      -97.9952469
               21                2       171.022278       143.525772               0.      -107.998787
               21                3       157.615921       126.903259               0.      -95.9417953
               21                4       125.393509       118.027573               0.      -103.668083
               22                1       108.099152       130.468384               0.      -103.213058
               22                2       129.375671       166.257126               0.      -105.246552
               22                3       114.371712       160.803757               0.      -94.7123184
               22                4       133.835114       195.129166               0.      -95.5532455
               23                1       79.1990280       199.389816               0.      -54.0791321
               23                2       78.9595108       214.442734               0.      -30.1106071
               23                3       46.2371788       147.848160               0.      -53.8045731
               23                4       44.3195839       160.691452               0.      -31.9130268
               24                1       95.0717239       162.592453               0.      -21.5892677
               24                2       94.0053482       151.198013               0.      -12.1318541
               24                3       129.190079       162.591324               0.      -28.0027046
               24                4       132.093307       148.692398               0.      -21.5496902
               25                1       145.837601       72.2248611               0.      -37.8942528
               25                2       212.111481       105.728462               0.      -29.9838943
               25                3       125.949768       65.0692291               0.      -58.5675278
               25                4       195.621201       100.226341               0.      -52.3946114
               26                1       150.539459       203.229218               0.       97.9952469
               26                2       143.525772       171.022278               0.       107.998787
               26                3       126.903259       157.615921               0.       95.9417953
               26                4       118.027573       125.393509               0.       103.668083
               27                1       130.468384       108.099152               0.       103.213058
               27                2       166.257126       129.375671               0.       105.246552
               27                3       160.803757       114.371712               0.       94.7123184
               27                4       195.129166       133.835114               0.       95.5532455
               28                1       199.389816       79.1990280               0.       54.0791321
               28                2       214.442734       78.9595108               0.       30.1106071
               28                3       147.848160       46.2371788               0.       53.8045731
               28                4       160.691452       44.3195839               0.       31.9130268
               29                1       162.592453       95.0717239               0.       21.5892677
               29                2       151.198013       94.0053482               0.       12.1318541
               29                3       162.591324       129.190079               0.       28.0027046
               29                4       148.692398       132.093307               0.       21.5496902
               30                1       72.2248611       145.837601               0.       37.8942528
               30                2       105.728462       212.111481               0.       29.9838943
               30                3       65.0692291       125.949768               0.       58.5675278
               30                4       100.226341       195.621201               0.       52.3946114
               31                1       133.835114       195.129166               0.       95.5532455
               31                2       129.375671       166.257126               0.       105.246552
               31                3       114.371712       160.803757               0.       94.7123184
               31                4       108.099152       130.468384               0.       103.213058
               32                1       125.393509       118.027573               0.       103.668083
               32                2       171.022278       143.525772               0.       107.998787
               32                3       157.615921       126.903259               0.       95.9417953
               32                4       203.229218       150.539459               0.       97.9952469
               33                1       195.621201       100.226341               0.       52.3946114
               33                2       212.111481       105.728462               0.       29.9838943
               33                3       125.949768       65.0692291               0.       58.5675278
               33                4       145.837601       72.2248611               0.       37.8942528
               34                1       132.093307       148.692398               0.       21.5496902
               34                2       94.0053482       151.198013               0.       12.1318541
               34                3       129.190079       162.591324               0.       28.0027046
               34                4       95.0717239       162.592453               0.       21.5892677
               35                1       44.3195839       160.691452               0.       31.9130268
               35                2       78.9595108       214.442734               0.       30.1106071
               35                3       46.2371788       147.848160               0.       53.8045731
               35                4       79.1990280       199.389816               0.       54.0791321
               36                1       195.129166       133.835114               0.      -95.5532455
               36                2       166.257126       129.375671               0.      -105.246552
               36                3       160.803757       114.371712               0.      -94.7123184
               36                4       130.468384       108.099152               0.      -103.213058
               37                1       118.027573       125.393509               0.      -103.668083
               37                2       143.525772       171.022278               0.      -107.998787
               37                3       126.903259       157.615921               0.      -95.9417953
               37                4       150.539459       203.229218               0.      -97.9952469
               38                1       100.226341       195.621201               0.      -52.3946114
               38                2       105.728462       212.111481               0.      -29.9838943
               38                3       65.0692291       125.949768               0.      -58.5675278
               38                4       72.2248611       145.837601               0.      -37.8942528
               39                1       148.692398       132.093307               0.      -21.5496902
               39                2       151.198013       94.0053482               0.      -12.1318541
               39                3       162.591324       129.190079               0.      -28.0027046
               39                4       162.592453       95.0717239               0.      -21.5892677
               40                1       160.691452       44.3195839               0.      -31.9130268
               40                2       214.442734       78.9595108               0.      -30.1106071
               40                3       147.848160       46.2371788               0.      -53.8045731
               40                4       199.389816       79.1990280               0.      -54.0791321


********************************************************************************
Field Output Report, written Wed Apr 16 15:17:46 2025

Source 1
---------

   ODB: C:/lnms/Vid/cross-hole/cross-hole-U.odb
   Step: loading
   Frame: Increment      4: Step Time =   0.4000

Loc 1 : Integration point values from source 1

Output sorted by column "Element Label".

Field Output reported at integration points for region: SPECIMEN-1.Region_1

          Element              Int            S.S11            S.S22            S.S33            S.S12
            Label               Pt           @Loc 1           @Loc 1           @Loc 1           @Loc 1
-------------------------------------------------------------------------------------------------------
                1                1       227.019043       155.026733               0.      -111.995003
                1                2       192.371292       149.633698               0.      -123.597221
                1                3       184.728668       130.579849               0.      -109.354630
                1                4       148.694244       123.058815               0.      -119.349907
                2                1       134.065765       143.051392               0.      -119.812744
                2                2       165.559036       197.238297               0.      -126.592468
                2                3       144.241394       180.741211               0.      -111.069984
                2                4       173.509445       235.290222               0.      -115.026543
                3                1       114.796196       226.326370               0.      -61.4608459
                3                2       121.670517       245.721954               0.      -35.0889664
                3                3       70.9638596       139.819412               0.      -66.2771759
                3                4       79.1731720       161.932007               0.      -42.5230522
                4                1       168.026489       149.135559               0.      -24.2671604
                4                2       166.955292       102.974747               0.      -13.4917784
                4                3       186.318741       147.951569               0.      -32.1235352
                4                4       183.281921       106.437721               0.      -24.5780964
                5                1       181.524094       48.9316750               0.      -36.4871902
                5                2       248.978653       90.1070709               0.      -35.3974037
                5                3       167.188843       50.1987000               0.      -61.6376610
                5                4       231.332108       89.3976669               0.      -63.6215630
                6                1       235.290222       173.509445               0.      -115.026543
                6                2       197.238297       165.559036               0.      -126.592468
                6                3       180.741211       144.241394               0.      -111.069984
                6                4       143.051392       134.065765               0.      -119.812744
                7                1       123.058815       148.694244               0.      -119.349907
                7                2       149.633698       192.371292               0.      -123.597221
                7                3       130.579849       184.728668               0.      -109.354630
                7                4       155.026733       227.019043               0.      -111.995003
                8                1       89.3976669       231.332108               0.      -63.6215630
                8                2       90.1070709       248.978653               0.      -35.3974037
                8                3       50.1987000       167.188843               0.      -61.6376610
                8                4       48.9316750       181.524094               0.      -36.4871902
                9                1       106.437721       183.281921               0.      -24.5780964
                9                2       102.974747       166.955292               0.      -13.4917784
                9                3       147.951569       186.318741               0.      -32.1235352
                9                4       149.135559       168.026489               0.      -24.2671604
               10                1       161.932007       79.1731720               0.      -42.5230522
               10                2       245.721954       121.670517               0.      -35.0889664
               10                3       139.819412       70.9638596               0.      -66.2771759
               10                4       226.326370       114.796196               0.      -61.4608459
               11                1       155.026733       227.019043               0.       111.995003
               11                2       149.633698       192.371292               0.       123.597221
               11                3       130.579849       184.728668               0.       109.354630
               11                4       123.058815       148.694244               0.       119.349907
               12                1       143.051392       134.065765               0.       119.812744
               12                2       197.238297       165.559036               0.       126.592468
               12                3       180.741211       144.241394               0.       111.069984
               12                4       235.290222       173.509445               0.       115.026543
               13                1       226.326370       114.796196               0.       61.4608459
               13                2       245.721954       121.670517               0.       35.0889664
               13                3       139.819412       70.9638596               0.       66.2771759
               13                4       161.932007       79.1731720               0.       42.5230522
               14                1       149.135559       168.026489               0.       24.2671604
               14                2       102.974747       166.955292               0.       13.4917784
               14                3       147.951569       186.318741               0.       32.1235352
               14                4       106.437721       183.281921               0.       24.5780964
               15                1       48.9316750       181.524094               0.       36.4871902
               15                2       90.1070709       248.978653               0.       35.3974037
               15                3       50.1987000       167.188843               0.       61.6376610
               15                4       89.3976669       231.332108               0.       63.6215630
               16                1       173.509445       235.290222               0.       115.026543
               16                2       165.559036       197.238297               0.       126.592468
               16                3       144.241394       180.741211               0.       111.069984
               16                4       134.065765       143.051392               0.       119.812744
               17                1       148.694244       123.058815               0.       119.349907
               17                2       192.371292       149.633698               0.       123.597221
               17                3       184.728668       130.579849               0.       109.354630
               17                4       227.019043       155.026733               0.       111.995003
               18                1       231.332108       89.3976669               0.       63.6215630
               18                2       248.978653       90.1070709               0.       35.3974037
               18                3       167.188843       50.1987000               0.       61.6376610
               18                4       181.524094       48.9316750               0.       36.4871902
               19                1       183.281921       106.437721               0.       24.5780964
               19                2       166.955292       102.974747               0.       13.4917784
               19                3       186.318741       147.951569               0.       32.1235352
               19                4       168.026489       149.135559               0.       24.2671604
               20                1       79.1731720       161.932007               0.       42.5230522
               20                2       121.670517       245.721954               0.       35.0889664
               20                3       70.9638596       139.819412               0.       66.2771759
               20                4       114.796196       226.326370               0.       61.4608459
               21                1       235.290222       173.509445               0.      -115.026543
               21                2       197.238297       165.559036               0.      -126.592468
               21                3       180.741211       144.241394               0.      -111.069984
               21                4       143.051392       134.065765               0.      -119.812744
               22                1       123.058815       148.694244               0.      -119.349907
               22                2       149.633698       192.371292               0.      -123.597221
               22                3       130.579849       184.728668               0.      -109.354630
               22                4       155.026733       227.019043               0.      -111.995003
               23                1       89.3976669       231.332108               0.      -63.6215630
               23                2       90.1070709       248.978653               0.      -35.3974037
               23                3       50.1987000       167.188843               0.      -61.6376610
               23                4       48.9316750       181.524094               0.      -36.4871902
               24                1       106.437721       183.281921               0.      -24.5780964
               24                2       102.974747       166.955292               0.      -13.4917784
               24                3       147.951569       186.318741               0.      -32.1235352
               24                4       149.135559       168.026489               0.      -24.2671604
               25                1       161.932007       79.1731720               0.      -42.5230522
               25                2       245.721954       121.670517               0.      -35.0889664
               25                3       139.819412       70.9638596               0.      -66.2771759
               25                4       226.326370       114.796196               0.      -61.4608459
               26                1       173.509445       235.290222               0.       115.026543
               26                2       165.559036       197.238297               0.       126.592468
               26                3       144.241394       180.741211               0.       111.069984
               26                4       134.065765       143.051392               0.       119.812744
               27                1       148.694244       123.058815               0.       119.349907
               27                2       192.371292       149.633698               0.       123.597221
               27                3       184.728668       130.579849               0.       109.354630
               27                4       227.019043       155.026733               0.       111.995003
               28                1       231.332108       89.3976669               0.       63.6215630
               28                2       248.978653       90.1070709               0.       35.3974037
               28                3       167.188843       50.1987000               0.       61.6376610
               28                4       181.524094       48.9316750               0.       36.4871902
               29                1       183.281921       106.437721               0.       24.5780964
               29                2       166.955292       102.974747               0.       13.4917784
               29                3       186.318741       147.951569               0.       32.1235352
               29                4       168.026489       149.135559               0.       24.2671604
               30                1       79.1731720       161.932007               0.       42.5230522
               30                2       121.670517       245.721954               0.       35.0889664
               30                3       70.9638596       139.819412               0.       66.2771759
               30                4       114.796196       226.326370               0.       61.4608459
               31                1       155.026733       227.019043               0.       111.995003
               31                2       149.633698       192.371292               0.       123.597221
               31                3       130.579849       184.728668               0.       109.354630
               31                4       123.058815       148.694244               0.       119.349907
               32                1       143.051392       134.065765               0.       119.812744
               32                2       197.238297       165.559036               0.       126.592468
               32                3       180.741211       144.241394               0.       111.069984
               32                4       235.290222       173.509445               0.       115.026543
               33                1       226.326370       114.796196               0.       61.4608459
               33                2       245.721954       121.670517               0.       35.0889664
               33                3       139.819412       70.9638596               0.       66.2771759
               33                4       161.932007       79.1731720               0.       42.5230522
               34                1       149.135559       168.026489               0.       24.2671604
               34                2       102.974747       166.955292               0.       13.4917784
               34                3       147.951569       186.318741               0.       32.1235352
               34                4       106.437721       183.281921               0.       24.5780964
               35                1       48.9316750       181.524094               0.       36.4871902
               35                2       90.1070709       248.978653               0.       35.3974037
               35                3       50.1987000       167.188843               0.       61.6376610
               35                4       89.3976669       231.332108               0.       63.6215630
               36                1       227.019043       155.026733               0.      -111.995003
               36                2       192.371292       149.633698               0.      -123.597221
               36                3       184.728668       130.579849               0.      -109.354630
               36                4       148.694244       123.058815               0.      -119.349907
               37                1       134.065765       143.051392               0.      -119.812744
               37                2       165.559036       197.238297               0.      -126.592468
               37                3       144.241394       180.741211               0.      -111.069984
               37                4       173.509445       235.290222               0.      -115.026543
               38                1       114.796196       226.326370               0.      -61.4608459
               38                2       121.670517       245.721954               0.      -35.0889664
               38                3       70.9638596       139.819412               0.      -66.2771759
               38                4       79.1731720       161.932007               0.      -42.5230522
               39                1       168.026489       149.135559               0.      -24.2671604
               39                2       166.955292       102.974747               0.      -13.4917784
               39                3       186.318741       147.951569               0.      -32.1235352
               39                4       183.281921       106.437721               0.      -24.5780964
               40                1       181.524094       48.9316750               0.      -36.4871902
               40                2       248.978653       90.1070709               0.      -35.3974037
               40                3       167.188843       50.1987000               0.      -61.6376610
               40                4       231.332108       89.3976669               0.      -63.6215630


********************************************************************************
Field Output Report, written Wed Apr 16 15:18:15 2025

Source 1
---------

   ODB: C:/lnms/Vid/cross-hole/cross-hole-U.odb
   Step: loading
   Frame: Increment      5: Step Time =   0.5000

Loc 1 : Integration point values from source 1

Output sorted by column "Element Label".

Field Output reported at integration points for region: SPECIMEN-1.Region_1

          Element              Int            S.S11            S.S22            S.S33            S.S12
            Label               Pt           @Loc 1           @Loc 1           @Loc 1           @Loc 1
-------------------------------------------------------------------------------------------------------
                1                1       257.863586       175.830612               0.      -128.255737
                1                2       217.297775       168.617813               0.      -141.870850
                1                3       208.270157       147.147797               0.      -123.791519
                1                4       166.570435       137.649002               0.      -135.343506
                2                1       149.729568       160.020401               0.      -135.911865
                2                2       186.790390       222.345840               0.      -145.107010
                2                3       161.458038       203.410370               0.      -126.072105
                2                4       195.976791       266.490021               0.      -131.875168
                3                1       128.019348       255.038681               0.      -70.4344711
                3                2       136.648041       277.665588               0.      -39.9452095
                3                3       75.6091766       151.736755               0.      -74.2941055
                3                4       85.4865189       176.930618               0.      -47.2428513
                4                1       186.400116       165.195038               0.      -27.0356865
                4                2       181.930801       111.102646               0.      -14.8895130
                4                3       208.843460       165.520264               0.      -36.1754189
                4                4       202.904861       116.802132               0.      -27.5044479
                5                1       201.091125       53.0226135               0.      -41.0178108
                5                2       281.513794       100.514519               0.      -40.3521194
                5                3       184.376953       53.0218277               0.      -69.7620239
                5                4       260.739166       98.2278976               0.      -73.0809250
                6                1       266.490021       195.976791               0.      -131.875168
                6                2       222.345840       186.790390               0.      -145.107010
                6                3       203.410370       161.458038               0.      -126.072105
                6                4       160.020401       149.729568               0.      -135.911865
                7                1       137.649002       166.570435               0.      -135.343506
                7                2       168.617813       217.297775               0.      -141.870850
                7                3       147.147797       208.270157               0.      -123.791519
                7                4       175.830612       257.863586               0.      -128.255737
                8                1       98.2278976       260.739166               0.      -73.0809250
                8                2       100.514519       281.513794               0.      -40.3521194
                8                3       53.0218277       184.376953               0.      -69.7620239
                8                4       53.0226135       201.091125               0.      -41.0178108
                9                1       116.802132       202.904861               0.      -27.5044479
                9                2       111.102646       181.930801               0.      -14.8895130
                9                3       165.520264       208.843460               0.      -36.1754189
                9                4       165.195038       186.400116               0.      -27.0356865
               10                1       176.930618       85.4865189               0.      -47.2428513
               10                2       277.665588       136.648041               0.      -39.9452095
               10                3       151.736755       75.6091766               0.      -74.2941055
               10                4       255.038681       128.019348               0.      -70.4344711
               11                1       175.830612       257.863586               0.       128.255737
               11                2       168.617813       217.297775               0.       141.870850
               11                3       147.147797       208.270157               0.       123.791519
               11                4       137.649002       166.570435               0.       135.343506
               12                1       160.020401       149.729568               0.       135.911865
               12                2       222.345840       186.790390               0.       145.107010
               12                3       203.410370       161.458038               0.       126.072105
               12                4       266.490021       195.976791               0.       131.875168
               13                1       255.038681       128.019348               0.       70.4344711
               13                2       277.665588       136.648041               0.       39.9452095
               13                3       151.736755       75.6091766               0.       74.2941055
               13                4       176.930618       85.4865189               0.       47.2428513
               14                1       165.195038       186.400116               0.       27.0356865
               14                2       111.102646       181.930801               0.       14.8895130
               14                3       165.520264       208.843460               0.       36.1754189
               14                4       116.802132       202.904861               0.       27.5044479
               15                1       53.0226135       201.091125               0.       41.0178108
               15                2       100.514519       281.513794               0.       40.3521194
               15                3       53.0218277       184.376953               0.       69.7620239
               15                4       98.2278976       260.739166               0.       73.0809250
               16                1       195.976791       266.490021               0.       131.875168
               16                2       186.790390       222.345840               0.       145.107010
               16                3       161.458038       203.410370               0.       126.072105
               16                4       149.729568       160.020401               0.       135.911865
               17                1       166.570435       137.649002               0.       135.343506
               17                2       217.297775       168.617813               0.       141.870850
               17                3       208.270157       147.147797               0.       123.791519
               17                4       257.863586       175.830612               0.       128.255737
               18                1       260.739166       98.2278976               0.       73.0809250
               18                2       281.513794       100.514519               0.       40.3521194
               18                3       184.376953       53.0218277               0.       69.7620239
               18                4       201.091125       53.0226135               0.       41.0178108
               19                1       202.904861       116.802132               0.       27.5044479
               19                2       181.930801       111.102646               0.       14.8895130
               19                3       208.843460       165.520264               0.       36.1754189
               19                4       186.400116       165.195038               0.       27.0356865
               20                1       85.4865189       176.930618               0.       47.2428513
               20                2       136.648041       277.665588               0.       39.9452095
               20                3       75.6091766       151.736755               0.       74.2941055
               20                4       128.019348       255.038681               0.       70.4344711
               21                1       266.490021       195.976791               0.      -131.875168
               21                2       222.345840       186.790390               0.      -145.107010
               21                3       203.410370       161.458038               0.      -126.072105
               21                4       160.020401       149.729568               0.      -135.911865
               22                1       137.649002       166.570435               0.      -135.343506
               22                2       168.617813       217.297775               0.      -141.870850
               22                3       147.147797       208.270157               0.      -123.791519
               22                4       175.830612       257.863586               0.      -128.255737
               23                1       98.2278976       260.739166               0.      -73.0809250
               23                2       100.514519       281.513794               0.      -40.3521194
               23                3       53.0218277       184.376953               0.      -69.7620239
               23                4       53.0226135       201.091125               0.      -41.0178108
               24                1       116.802132       202.904861               0.      -27.5044479
               24                2       111.102646       181.930801               0.      -14.8895130
               24                3       165.520264       208.843460               0.      -36.1754189
               24                4       165.195038       186.400116               0.      -27.0356865
               25                1       176.930618       85.4865189               0.      -47.2428513
               25                2       277.665588       136.648041               0.      -39.9452095
               25                3       151.736755       75.6091766               0.      -74.2941055
               25                4       255.038681       128.019348               0.      -70.4344711
               26                1       195.976791       266.490021               0.       131.875168
               26                2       186.790390       222.345840               0.       145.107010
               26                3       161.458038       203.410370               0.       126.072105
               26                4       149.729568       160.020401               0.       135.911865
               27                1       166.570435       137.649002               0.       135.343506
               27                2       217.297775       168.617813               0.       141.870850
               27                3       208.270157       147.147797               0.       123.791519
               27                4       257.863586       175.830612               0.       128.255737
               28                1       260.739166       98.2278976               0.       73.0809250
               28                2       281.513794       100.514519               0.       40.3521194
               28                3       184.376953       53.0218277               0.       69.7620239
               28                4       201.091125       53.0226135               0.       41.0178108
               29                1       202.904861       116.802132               0.       27.5044479
               29                2       181.930801       111.102646               0.       14.8895130
               29                3       208.843460       165.520264               0.       36.1754189
               29                4       186.400116       165.195038               0.       27.0356865
               30                1       85.4865189       176.930618               0.       47.2428513
               30                2       136.648041       277.665588               0.       39.9452095
               30                3       75.6091766       151.736755               0.       74.2941055
               30                4       128.019348       255.038681               0.       70.4344711
               31                1       175.830612       257.863586               0.       128.255737
               31                2       168.617813       217.297775               0.       141.870850
               31                3       147.147797       208.270157               0.       123.791519
               31                4       137.649002       166.570435               0.       135.343506
               32                1       160.020401       149.729568               0.       135.911865
               32                2       222.345840       186.790390               0.       145.107010
               32                3       203.410370       161.458038               0.       126.072105
               32                4       266.490021       195.976791               0.       131.875168
               33                1       255.038681       128.019348               0.       70.4344711
               33                2       277.665588       136.648041               0.       39.9452095
               33                3       151.736755       75.6091766               0.       74.2941055
               33                4       176.930618       85.4865189               0.       47.2428513
               34                1       165.195038       186.400116               0.       27.0356865
               34                2       111.102646       181.930801               0.       14.8895130
               34                3       165.520264       208.843460               0.       36.1754189
               34                4       116.802132       202.904861               0.       27.5044479
               35                1       53.0226135       201.091125               0.       41.0178108
               35                2       100.514519       281.513794               0.       40.3521194
               35                3       53.0218277       184.376953               0.       69.7620239
               35                4       98.2278976       260.739166               0.       73.0809250
               36                1       257.863586       175.830612               0.      -128.255737
               36                2       217.297775       168.617813               0.      -141.870850
               36                3       208.270157       147.147797               0.      -123.791519
               36                4       166.570435       137.649002               0.      -135.343506
               37                1       149.729568       160.020401               0.      -135.911865
               37                2       186.790390       222.345840               0.      -145.107010
               37                3       161.458038       203.410370               0.      -126.072105
               37                4       195.976791       266.490021               0.      -131.875168
               38                1       128.019348       255.038681               0.      -70.4344711
               38                2       136.648041       277.665588               0.      -39.9452095
               38                3       75.6091766       151.736755               0.      -74.2941055
               38                4       85.4865189       176.930618               0.      -47.2428513
               39                1       186.400116       165.195038               0.      -27.0356865
               39                2       181.930801       111.102646               0.      -14.8895130
               39                3       208.843460       165.520264               0.      -36.1754189
               39                4       202.904861       116.802132               0.      -27.5044479
               40                1       201.091125       53.0226135               0.      -41.0178108
               40                2       281.513794       100.514519               0.      -40.3521194
               40                3       184.376953       53.0218277               0.      -69.7620239
               40                4       260.739166       98.2278976               0.      -73.0809250


********************************************************************************
Field Output Report, written Wed Apr 16 15:18:19 2025

Source 1
---------

   ODB: C:/lnms/Vid/cross-hole/cross-hole-U.odb
   Step: loading
   Frame: Increment      6: Step Time =   0.6000

Loc 1 : Integration point values from source 1

Output sorted by column "Element Label".

Field Output reported at integration points for region: SPECIMEN-1.Region_1

          Element              Int            S.S11            S.S22            S.S33            S.S12
            Label               Pt           @Loc 1           @Loc 1           @Loc 1           @Loc 1
-------------------------------------------------------------------------------------------------------
                1                1       287.702942       196.152222               0.      -144.362610
                1                2       241.131180       186.657288               0.      -160.015015
                1                3       231.404419       163.717804               0.      -138.111664
                1                4       184.044937       151.888199               0.      -151.238434
                2                1       165.010788       176.461639               0.      -151.968613
                2                2       207.299515       246.421753               0.      -163.548538
                2                3       178.358780       225.619308               0.      -141.023331
                2                4       217.820084       296.754333               0.      -148.647736
                3                1       140.185806       281.908142               0.      -79.2722473
                3                2       150.713654       307.970642               0.      -44.6516571
                3                3       79.4269409       162.182098               0.      -82.3448257
                3                4       91.2251434       190.932205               0.      -51.9481125
                4                1       203.805923       180.290283               0.      -29.7672749
                4                2       196.093292       118.433464               0.      -16.2857857
                4                3       230.145416       181.949417               0.      -40.1085625
                4                4       221.434189       126.220581               0.      -30.3572407
                5                1       219.463608       56.6779175               0.      -45.4549446
                5                2       312.141296       110.175888               0.      -45.0786400
                5                3       199.882477       55.0780945               0.      -77.8953323
                5                4       287.916931       105.960617               0.      -82.3683319
                6                1       296.754333       217.820084               0.      -148.647736
                6                2       246.421753       207.299515               0.      -163.548538
                6                3       225.619308       178.358780               0.      -141.023331
                6                4       176.461639       165.010788               0.      -151.968613
                7                1       151.888199       184.044937               0.      -151.238434
                7                2       186.657288       241.131180               0.      -160.015015
                7                3       163.717804       231.404419               0.      -138.111664
                7                4       196.152222       287.702942               0.      -144.362610
                8                1       105.960617       287.916931               0.      -82.3683319
                8                2       110.175888       312.141296               0.      -45.0786400
                8                3       55.0780945       199.882477               0.      -77.8953323
                8                4       56.6779175       219.463608               0.      -45.4549446
                9                1       126.220581       221.434189               0.      -30.3572407
                9                2       118.433464       196.093292               0.      -16.2857857
                9                3       181.949417       230.145416               0.      -40.1085625
                9                4       180.290283       203.805923               0.      -29.7672749
               10                1       190.932205       91.2251434               0.      -51.9481125
               10                2       307.970642       150.713654               0.      -44.6516571
               10                3       162.182098       79.4269409               0.      -82.3448257
               10                4       281.908142       140.185806               0.      -79.2722473
               11                1       196.152222       287.702942               0.       144.362610
               11                2       186.657288       241.131180               0.       160.015015
               11                3       163.717804       231.404419               0.       138.111664
               11                4       151.888199       184.044937               0.       151.238434
               12                1       176.461639       165.010788               0.       151.968613
               12                2       246.421753       207.299515               0.       163.548538
               12                3       225.619308       178.358780               0.       141.023331
               12                4       296.754333       217.820084               0.       148.647736
               13                1       281.908142       140.185806               0.       79.2722473
               13                2       307.970642       150.713654               0.       44.6516571
               13                3       162.182098       79.4269409               0.       82.3448257
               13                4       190.932205       91.2251434               0.       51.9481125
               14                1       180.290283       203.805923               0.       29.7672749
               14                2       118.433464       196.093292               0.       16.2857857
               14                3       181.949417       230.145416               0.       40.1085625
               14                4       126.220581       221.434189               0.       30.3572407
               15                1       56.6779175       219.463608               0.       45.4549446
               15                2       110.175888       312.141296               0.       45.0786400
               15                3       55.0780945       199.882477               0.       77.8953323
               15                4       105.960617       287.916931               0.       82.3683319
               16                1       217.820084       296.754333               0.       148.647736
               16                2       207.299515       246.421753               0.       163.548538
               16                3       178.358780       225.619308               0.       141.023331
               16                4       165.010788       176.461639               0.       151.968613
               17                1       184.044937       151.888199               0.       151.238434
               17                2       241.131180       186.657288               0.       160.015015
               17                3       231.404419       163.717804               0.       138.111664
               17                4       287.702942       196.152222               0.       144.362610
               18                1       287.916931       105.960617               0.       82.3683319
               18                2       312.141296       110.175888               0.       45.0786400
               18                3       199.882477       55.0780945               0.       77.8953323
               18                4       219.463608       56.6779175               0.       45.4549446
               19                1       221.434189       126.220581               0.       30.3572407
               19                2       196.093292       118.433464               0.       16.2857857
               19                3       230.145416       181.949417               0.       40.1085625
               19                4       203.805923       180.290283               0.       29.7672749
               20                1       91.2251434       190.932205               0.       51.9481125
               20                2       150.713654       307.970642               0.       44.6516571
               20                3       79.4269409       162.182098               0.       82.3448257
               20                4       140.185806       281.908142               0.       79.2722473
               21                1       296.754333       217.820084               0.      -148.647736
               21                2       246.421753       207.299515               0.      -163.548538
               21                3       225.619308       178.358780               0.      -141.023331
               21                4       176.461639       165.010788               0.      -151.968613
               22                1       151.888199       184.044937               0.      -151.238434
               22                2       186.657288       241.131180               0.      -160.015015
               22                3       163.717804       231.404419               0.      -138.111664
               22                4       196.152222       287.702942               0.      -144.362610
               23                1       105.960617       287.916931               0.      -82.3683319
               23                2       110.175888       312.141296               0.      -45.0786400
               23                3       55.0780945       199.882477               0.      -77.8953323
               23                4       56.6779175       219.463608               0.      -45.4549446
               24                1       126.220581       221.434189               0.      -30.3572407
               24                2       118.433464       196.093292               0.      -16.2857857
               24                3       181.949417       230.145416               0.      -40.1085625
               24                4       180.290283       203.805923               0.      -29.7672749
               25                1       190.932205       91.2251434               0.      -51.9481125
               25                2       307.970642       150.713654               0.      -44.6516571
               25                3       162.182098       79.4269409               0.      -82.3448257
               25                4       281.908142       140.185806               0.      -79.2722473
               26                1       217.820084       296.754333               0.       148.647736
               26                2       207.299515       246.421753               0.       163.548538
               26                3       178.358780       225.619308               0.       141.023331
               26                4       165.010788       176.461639               0.       151.968613
               27                1       184.044937       151.888199               0.       151.238434
               27                2       241.131180       186.657288               0.       160.015015
               27                3       231.404419       163.717804               0.       138.111664
               27                4       287.702942       196.152222               0.       144.362610
               28                1       287.916931       105.960617               0.       82.3683319
               28                2       312.141296       110.175888               0.       45.0786400
               28                3       199.882477       55.0780945               0.       77.8953323
               28                4       219.463608       56.6779175               0.       45.4549446
               29                1       221.434189       126.220581               0.       30.3572407
               29                2       196.093292       118.433464               0.       16.2857857
               29                3       230.145416       181.949417               0.       40.1085625
               29                4       203.805923       180.290283               0.       29.7672749
               30                1       91.2251434       190.932205               0.       51.9481125
               30                2       150.713654       307.970642               0.       44.6516571
               30                3       79.4269409       162.182098               0.       82.3448257
               30                4       140.185806       281.908142               0.       79.2722473
               31                1       196.152222       287.702942               0.       144.362610
               31                2       186.657288       241.131180               0.       160.015015
               31                3       163.717804       231.404419               0.       138.111664
               31                4       151.888199       184.044937               0.       151.238434
               32                1       176.461639       165.010788               0.       151.968613
               32                2       246.421753       207.299515               0.       163.548538
               32                3       225.619308       178.358780               0.       141.023331
               32                4       296.754333       217.820084               0.       148.647736
               33                1       281.908142       140.185806               0.       79.2722473
               33                2       307.970642       150.713654               0.       44.6516571
               33                3       162.182098       79.4269409               0.       82.3448257
               33                4       190.932205       91.2251434               0.       51.9481125
               34                1       180.290283       203.805923               0.       29.7672749
               34                2       118.433464       196.093292               0.       16.2857857
               34                3       181.949417       230.145416               0.       40.1085625
               34                4       126.220581       221.434189               0.       30.3572407
               35                1       56.6779175       219.463608               0.       45.4549446
               35                2       110.175888       312.141296               0.       45.0786400
               35                3       55.0780945       199.882477               0.       77.8953323
               35                4       105.960617       287.916931               0.       82.3683319
               36                1       287.702942       196.152222               0.      -144.362610
               36                2       241.131180       186.657288               0.      -160.015015
               36                3       231.404419       163.717804               0.      -138.111664
               36                4       184.044937       151.888199               0.      -151.238434
               37                1       165.010788       176.461639               0.      -151.968613
               37                2       207.299515       246.421753               0.      -163.548538
               37                3       178.358780       225.619308               0.      -141.023331
               37                4       217.820084       296.754333               0.      -148.647736
               38                1       140.185806       281.908142               0.      -79.2722473
               38                2       150.713654       307.970642               0.      -44.6516571
               38                3       79.4269409       162.182098               0.      -82.3448257
               38                4       91.2251434       190.932205               0.      -51.9481125
               39                1       203.805923       180.290283               0.      -29.7672749
               39                2       196.093292       118.433464               0.      -16.2857857
               39                3       230.145416       181.949417               0.      -40.1085625
               39                4       221.434189       126.220581               0.      -30.3572407
               40                1       219.463608       56.6779175               0.      -45.4549446
               40                2       312.141296       110.175888               0.      -45.0786400
               40                3       199.882477       55.0780945               0.      -77.8953323
               40                4       287.916931       105.960617               0.      -82.3683319


********************************************************************************
Field Output Report, written Wed Apr 16 15:18:22 2025

Source 1
---------

   ODB: C:/lnms/Vid/cross-hole/cross-hole-U.odb
   Step: loading
   Frame: Increment      7: Step Time =   0.7000

Loc 1 : Integration point values from source 1

Output sorted by column "Element Label".

Field Output reported at integration points for region: SPECIMEN-1.Region_1

          Element              Int            S.S11            S.S22            S.S33            S.S12
            Label               Pt           @Loc 1           @Loc 1           @Loc 1           @Loc 1
-------------------------------------------------------------------------------------------------------
                1                1       316.657013       216.046799               0.      -160.286072
                1                2       263.972534       203.877335               0.      -178.005081
                1                3       254.195053       180.263489               0.      -152.310257
                1                4       201.131241       165.805923               0.      -167.041489
                2                1       179.939896       192.467987               0.      -167.970444
                2                2       227.136871       269.555756               0.      -181.899155
                2                3       194.935577       247.424316               0.      -155.920959
                2                4       239.048523       326.136108               0.      -165.342789
                3                1       151.417725       307.073853               0.      -87.9557953
                3                2       163.935104       336.742493               0.      -49.1967278
                3                3       82.5120621       171.271332               0.      -90.3727417
                3                4       96.4222107       203.998276               0.      -56.5964737
                4                1       220.255081       194.449509               0.      -32.4290428
                4                2       209.443085       125.021423               0.      -17.6632137
                4                3       250.241516       197.288727               0.      -43.9026947
                4                4       238.881638       134.755417               0.      -33.1264687
                5                1       236.699921       59.9616814               0.      -49.7835884
                5                2       340.996399       119.174309               0.      -49.5777206
                5                3       213.810074       56.4147034               0.      -85.9898148
                5                4       313.030823       112.668007               0.      -91.4703445
                6                1       326.136108       239.048523               0.      -165.342789
                6                2       269.555756       227.136871               0.      -181.899155
                6                3       247.424316       194.935577               0.      -155.920959
                6                4       192.467987       179.939896               0.      -167.970444
                7                1       165.805923       201.131241               0.      -167.041489
                7                2       203.877335       263.972534               0.      -178.005081
                7                3       180.263489       254.195053               0.      -152.310257
                7                4       216.046799       316.657013               0.      -160.286072
                8                1       112.668007       313.030823               0.      -91.4703445
                8                2       119.174309       340.996399               0.      -49.5777206
                8                3       56.4147034       213.810074               0.      -85.9898148
                8                4       59.9616814       236.699921               0.      -49.7835884
                9                1       134.755417       238.881638               0.      -33.1264687
                9                2       125.021423       209.443085               0.      -17.6632137
                9                3       197.288727       250.241516               0.      -43.9026947
                9                4       194.449509       220.255081               0.      -32.4290428
               10                1       203.998276       96.4222107               0.      -56.5964737
               10                2       336.742493       163.935104               0.      -49.1967278
               10                3       171.271332       82.5120621               0.      -90.3727417
               10                4       307.073853       151.417725               0.      -87.9557953
               11                1       216.046799       316.657013               0.       160.286072
               11                2       203.877335       263.972534               0.       178.005081
               11                3       180.263489       254.195053               0.       152.310257
               11                4       165.805923       201.131241               0.       167.041489
               12                1       192.467987       179.939896               0.       167.970444
               12                2       269.555756       227.136871               0.       181.899155
               12                3       247.424316       194.935577               0.       155.920959
               12                4       326.136108       239.048523               0.       165.342789
               13                1       307.073853       151.417725               0.       87.9557953
               13                2       336.742493       163.935104               0.       49.1967278
               13                3       171.271332       82.5120621               0.       90.3727417
               13                4       203.998276       96.4222107               0.       56.5964737
               14                1       194.449509       220.255081               0.       32.4290428
               14                2       125.021423       209.443085               0.       17.6632137
               14                3       197.288727       250.241516               0.       43.9026947
               14                4       134.755417       238.881638               0.       33.1264687
               15                1       59.9616814       236.699921               0.       49.7835884
               15                2       119.174309       340.996399               0.       49.5777206
               15                3       56.4147034       213.810074               0.       85.9898148
               15                4       112.668007       313.030823               0.       91.4703445
               16                1       239.048523       326.136108               0.       165.342789
               16                2       227.136871       269.555756               0.       181.899155
               16                3       194.935577       247.424316               0.       155.920959
               16                4       179.939896       192.467987               0.       167.970444
               17                1       201.131241       165.805923               0.       167.041489
               17                2       263.972534       203.877335               0.       178.005081
               17                3       254.195053       180.263489               0.       152.310257
               17                4       316.657013       216.046799               0.       160.286072
               18                1       313.030823       112.668007               0.       91.4703445
               18                2       340.996399       119.174309               0.       49.5777206
               18                3       213.810074       56.4147034               0.       85.9898148
               18                4       236.699921       59.9616814               0.       49.7835884
               19                1       238.881638       134.755417               0.       33.1264687
               19                2       209.443085       125.021423               0.       17.6632137
               19                3       250.241516       197.288727               0.       43.9026947
               19                4       220.255081       194.449509               0.       32.4290428
               20                1       96.4222107       203.998276               0.       56.5964737
               20                2       163.935104       336.742493               0.       49.1967278
               20                3       82.5120621       171.271332               0.       90.3727417
               20                4       151.417725       307.073853               0.       87.9557953
               21                1       326.136108       239.048523               0.      -165.342789
               21                2       269.555756       227.136871               0.      -181.899155
               21                3       247.424316       194.935577               0.      -155.920959
               21                4       192.467987       179.939896               0.      -167.970444
               22                1       165.805923       201.131241               0.      -167.041489
               22                2       203.877335       263.972534               0.      -178.005081
               22                3       180.263489       254.195053               0.      -152.310257
               22                4       216.046799       316.657013               0.      -160.286072
               23                1       112.668007       313.030823               0.      -91.4703445
               23                2       119.174309       340.996399               0.      -49.5777206
               23                3       56.4147034       213.810074               0.      -85.9898148
               23                4       59.9616814       236.699921               0.      -49.7835884
               24                1       134.755417       238.881638               0.      -33.1264687
               24                2       125.021423       209.443085               0.      -17.6632137
               24                3       197.288727       250.241516               0.      -43.9026947
               24                4       194.449509       220.255081               0.      -32.4290428
               25                1       203.998276       96.4222107               0.      -56.5964737
               25                2       336.742493       163.935104               0.      -49.1967278
               25                3       171.271332       82.5120621               0.      -90.3727417
               25                4       307.073853       151.417725               0.      -87.9557953
               26                1       239.048523       326.136108               0.       165.342789
               26                2       227.136871       269.555756               0.       181.899155
               26                3       194.935577       247.424316               0.       155.920959
               26                4       179.939896       192.467987               0.       167.970444
               27                1       201.131241       165.805923               0.       167.041489
               27                2       263.972534       203.877335               0.       178.005081
               27                3       254.195053       180.263489               0.       152.310257
               27                4       316.657013       216.046799               0.       160.286072
               28                1       313.030823       112.668007               0.       91.4703445
               28                2       340.996399       119.174309               0.       49.5777206
               28                3       213.810074       56.4147034               0.       85.9898148
               28                4       236.699921       59.9616814               0.       49.7835884
               29                1       238.881638       134.755417               0.       33.1264687
               29                2       209.443085       125.021423               0.       17.6632137
               29                3       250.241516       197.288727               0.       43.9026947
               29                4       220.255081       194.449509               0.       32.4290428
               30                1       96.4222107       203.998276               0.       56.5964737
               30                2       163.935104       336.742493               0.       49.1967278
               30                3       82.5120621       171.271332               0.       90.3727417
               30                4       151.417725       307.073853               0.       87.9557953
               31                1       216.046799       316.657013               0.       160.286072
               31                2       203.877335       263.972534               0.       178.005081
               31                3       180.263489       254.195053               0.       152.310257
               31                4       165.805923       201.131241               0.       167.041489
               32                1       192.467987       179.939896               0.       167.970444
               32                2       269.555756       227.136871               0.       181.899155
               32                3       247.424316       194.935577               0.       155.920959
               32                4       326.136108       239.048523               0.       165.342789
               33                1       307.073853       151.417725               0.       87.9557953
               33                2       336.742493       163.935104               0.       49.1967278
               33                3       171.271332       82.5120621               0.       90.3727417
               33                4       203.998276       96.4222107               0.       56.5964737
               34                1       194.449509       220.255081               0.       32.4290428
               34                2       125.021423       209.443085               0.       17.6632137
               34                3       197.288727       250.241516               0.       43.9026947
               34                4       134.755417       238.881638               0.       33.1264687
               35                1       59.9616814       236.699921               0.       49.7835884
               35                2       119.174309       340.996399               0.       49.5777206
               35                3       56.4147034       213.810074               0.       85.9898148
               35                4       112.668007       313.030823               0.       91.4703445
               36                1       316.657013       216.046799               0.      -160.286072
               36                2       263.972534       203.877335               0.      -178.005081
               36                3       254.195053       180.263489               0.      -152.310257
               36                4       201.131241       165.805923               0.      -167.041489
               37                1       179.939896       192.467987               0.      -167.970444
               37                2       227.136871       269.555756               0.      -181.899155
               37                3       194.935577       247.424316               0.      -155.920959
               37                4       239.048523       326.136108               0.      -165.342789
               38                1       151.417725       307.073853               0.      -87.9557953
               38                2       163.935104       336.742493               0.      -49.1967278
               38                3       82.5120621       171.271332               0.      -90.3727417
               38                4       96.4222107       203.998276               0.      -56.5964737
               39                1       220.255081       194.449509               0.      -32.4290428
               39                2       209.443085       125.021423               0.      -17.6632137
               39                3       250.241516       197.288727               0.      -43.9026947
               39                4       238.881638       134.755417               0.      -33.1264687
               40                1       236.699921       59.9616814               0.      -49.7835884
               40                2       340.996399       119.174309               0.      -49.5777206
               40                3       213.810074       56.4147034               0.      -85.9898148
               40                4       313.030823       112.668007               0.      -91.4703445


********************************************************************************
Field Output Report, written Wed Apr 16 15:18:25 2025

Source 1
---------

   ODB: C:/lnms/Vid/cross-hole/cross-hole-U.odb
   Step: loading
   Frame: Increment      8: Step Time =   0.8000

Loc 1 : Integration point values from source 1

Output sorted by column "Element Label".

Field Output reported at integration points for region: SPECIMEN-1.Region_1

          Element              Int            S.S11            S.S22            S.S33            S.S12
            Label               Pt           @Loc 1           @Loc 1           @Loc 1           @Loc 1
-------------------------------------------------------------------------------------------------------
                1                1       344.855591       235.593613               0.      -175.994049
                1                2       285.924805       220.369156               0.      -195.824951
                1                3       276.717957       196.812851               0.      -166.367889
                1                4       217.861938       179.434372               0.      -182.750443
                2                1       194.559402       208.113708               0.      -183.902145
                2                2       246.359406       291.839874               0.      -200.137329
                2                3       211.216812       268.889099               0.      -170.748962
                2                4       259.702515       354.713348               0.      -181.940491
                3                1       161.811554       330.660858               0.      -96.4699707
                3                2       176.380829       364.086823               0.      -53.5558701
                3                3       84.9151917       179.061111               0.      -98.3539429
                3                4       101.110413       216.181213               0.      -61.1594582
                4                1       235.768967       207.703705               0.      -34.9962158
                4                2       221.991776       130.931488               0.      -19.0063553
                4                3       269.159973       211.588516               0.      -47.5384750
                4                4       255.270660       142.479279               0.      -35.7975388
                5                1       252.851074       62.9269753               0.      -53.9928436
                5                2       368.198059       127.596603               0.      -53.8354912
                5                3       226.200760       57.0407791               0.      -94.0321045
                5                4       336.199982       118.399185               0.      -100.382629
                6                1       354.713348       259.702515               0.      -181.940491
                6                2       291.839874       246.359406               0.      -200.137329
                6                3       268.889099       211.216812               0.      -170.748962
                6                4       208.113708       194.559402               0.      -183.902145
                7                1       179.434372       217.861938               0.      -182.750443
                7                2       220.369156       285.924805               0.      -195.824951
                7                3       196.812851       276.717957               0.      -166.367889
                7                4       235.593613       344.855591               0.      -175.994049
                8                1       118.399185       336.199982               0.      -100.382629
                8                2       127.596603       368.198059               0.      -53.8354912
                8                3       57.0407791       226.200760               0.      -94.0321045
                8                4       62.9269753       252.851074               0.      -53.9928436
                9                1       142.479279       255.270660               0.      -35.7975388
                9                2       130.931488       221.991776               0.      -19.0063553
                9                3       211.588516       269.159973               0.      -47.5384750
                9                4       207.703705       235.768967               0.      -34.9962158
               10                1       216.181213       101.110413               0.      -61.1594582
               10                2       364.086823       176.380829               0.      -53.5558701
               10                3       179.061111       84.9151917               0.      -98.3539429
               10                4       330.660858       161.811554               0.      -96.4699707
               11                1       235.593613       344.855591               0.       175.994049
               11                2       220.369156       285.924805               0.       195.824951
               11                3       196.812851       276.717957               0.       166.367889
               11                4       179.434372       217.861938               0.       182.750443
               12                1       208.113708       194.559402               0.       183.902145
               12                2       291.839874       246.359406               0.       200.137329
               12                3       268.889099       211.216812               0.       170.748962
               12                4       354.713348       259.702515               0.       181.940491
               13                1       330.660858       161.811554               0.       96.4699707
               13                2       364.086823       176.380829               0.       53.5558701
               13                3       179.061111       84.9151917               0.       98.3539429
               13                4       216.181213       101.110413               0.       61.1594582
               14                1       207.703705       235.768967               0.       34.9962158
               14                2       130.931488       221.991776               0.       19.0063553
               14                3       211.588516       269.159973               0.       47.5384750
               14                4       142.479279       255.270660               0.       35.7975388
               15                1       62.9269753       252.851074               0.       53.9928436
               15                2       127.596603       368.198059               0.       53.8354912
               15                3       57.0407791       226.200760               0.       94.0321045
               15                4       118.399185       336.199982               0.       100.382629
               16                1       259.702515       354.713348               0.       181.940491
               16                2       246.359406       291.839874               0.       200.137329
               16                3       211.216812       268.889099               0.       170.748962
               16                4       194.559402       208.113708               0.       183.902145
               17                1       217.861938       179.434372               0.       182.750443
               17                2       285.924805       220.369156               0.       195.824951
               17                3       276.717957       196.812851               0.       166.367889
               17                4       344.855591       235.593613               0.       175.994049
               18                1       336.199982       118.399185               0.       100.382629
               18                2       368.198059       127.596603               0.       53.8354912
               18                3       226.200760       57.0407791               0.       94.0321045
               18                4       252.851074       62.9269753               0.       53.9928436
               19                1       255.270660       142.479279               0.       35.7975388
               19                2       221.991776       130.931488               0.       19.0063553
               19                3       269.159973       211.588516               0.       47.5384750
               19                4       235.768967       207.703705               0.       34.9962158
               20                1       101.110413       216.181213               0.       61.1594582
               20                2       176.380829       364.086823               0.       53.5558701
               20                3       84.9151917       179.061111               0.       98.3539429
               20                4       161.811554       330.660858               0.       96.4699707
               21                1       354.713348       259.702515               0.      -181.940491
               21                2       291.839874       246.359406               0.      -200.137329
               21                3       268.889099       211.216812               0.      -170.748962
               21                4       208.113708       194.559402               0.      -183.902145
               22                1       179.434372       217.861938               0.      -182.750443
               22                2       220.369156       285.924805               0.      -195.824951
               22                3       196.812851       276.717957               0.      -166.367889
               22                4       235.593613       344.855591               0.      -175.994049
               23                1       118.399185       336.199982               0.      -100.382629
               23                2       127.596603       368.198059               0.      -53.8354912
               23                3       57.0407791       226.200760               0.      -94.0321045
               23                4       62.9269753       252.851074               0.      -53.9928436
               24                1       142.479279       255.270660               0.      -35.7975388
               24                2       130.931488       221.991776               0.      -19.0063553
               24                3       211.588516       269.159973               0.      -47.5384750
               24                4       207.703705       235.768967               0.      -34.9962158
               25                1       216.181213       101.110413               0.      -61.1594582
               25                2       364.086823       176.380829               0.      -53.5558701
               25                3       179.061111       84.9151917               0.      -98.3539429
               25                4       330.660858       161.811554               0.      -96.4699707
               26                1       259.702515       354.713348               0.       181.940491
               26                2       246.359406       291.839874               0.       200.137329
               26                3       211.216812       268.889099               0.       170.748962
               26                4       194.559402       208.113708               0.       183.902145
               27                1       217.861938       179.434372               0.       182.750443
               27                2       285.924805       220.369156               0.       195.824951
               27                3       276.717957       196.812851               0.       166.367889
               27                4       344.855591       235.593613               0.       175.994049
               28                1       336.199982       118.399185               0.       100.382629
               28                2       368.198059       127.596603               0.       53.8354912
               28                3       226.200760       57.0407791               0.       94.0321045
               28                4       252.851074       62.9269753               0.       53.9928436
               29                1       255.270660       142.479279               0.       35.7975388
               29                2       221.991776       130.931488               0.       19.0063553
               29                3       269.159973       211.588516               0.       47.5384750
               29                4       235.768967       207.703705               0.       34.9962158
               30                1       101.110413       216.181213               0.       61.1594582
               30                2       176.380829       364.086823               0.       53.5558701
               30                3       84.9151917       179.061111               0.       98.3539429
               30                4       161.811554       330.660858               0.       96.4699707
               31                1       235.593613       344.855591               0.       175.994049
               31                2       220.369156       285.924805               0.       195.824951
               31                3       196.812851       276.717957               0.       166.367889
               31                4       179.434372       217.861938               0.       182.750443
               32                1       208.113708       194.559402               0.       183.902145
               32                2       291.839874       246.359406               0.       200.137329
               32                3       268.889099       211.216812               0.       170.748962
               32                4       354.713348       259.702515               0.       181.940491
               33                1       330.660858       161.811554               0.       96.4699707
               33                2       364.086823       176.380829               0.       53.5558701
               33                3       179.061111       84.9151917               0.       98.3539429
               33                4       216.181213       101.110413               0.       61.1594582
               34                1       207.703705       235.768967               0.       34.9962158
               34                2       130.931488       221.991776               0.       19.0063553
               34                3       211.588516       269.159973               0.       47.5384750
               34                4       142.479279       255.270660               0.       35.7975388
               35                1       62.9269753       252.851074               0.       53.9928436
               35                2       127.596603       368.198059               0.       53.8354912
               35                3       57.0407791       226.200760               0.       94.0321045
               35                4       118.399185       336.199982               0.       100.382629
               36                1       344.855591       235.593613               0.      -175.994049
               36                2       285.924805       220.369156               0.      -195.824951
               36                3       276.717957       196.812851               0.      -166.367889
               36                4       217.861938       179.434372               0.      -182.750443
               37                1       194.559402       208.113708               0.      -183.902145
               37                2       246.359406       291.839874               0.      -200.137329
               37                3       211.216812       268.889099               0.      -170.748962
               37                4       259.702515       354.713348               0.      -181.940491
               38                1       161.811554       330.660858               0.      -96.4699707
               38                2       176.380829       364.086823               0.      -53.5558701
               38                3       84.9151917       179.061111               0.      -98.3539429
               38                4       101.110413       216.181213               0.      -61.1594582
               39                1       235.768967       207.703705               0.      -34.9962158
               39                2       221.991776       130.931488               0.      -19.0063553
               39                3       269.159973       211.588516               0.      -47.5384750
               39                4       255.270660       142.479279               0.      -35.7975388
               40                1       252.851074       62.9269753               0.      -53.9928436
               40                2       368.198059       127.596603               0.      -53.8354912
               40                3       226.200760       57.0407791               0.      -94.0321045
               40                4       336.199982       118.399185               0.      -100.382629


********************************************************************************
Field Output Report, written Wed Apr 16 15:18:40 2025

Source 1
---------

   ODB: C:/lnms/Vid/cross-hole/cross-hole-U.odb
   Step: loading
   Frame: Increment      9: Step Time =   0.9000

Loc 1 : Integration point values from source 1

Output sorted by column "Element Label".

Field Output reported at integration points for region: SPECIMEN-1.Region_1

          Element              Int            S.S11            S.S22            S.S33            S.S12
            Label               Pt           @Loc 1           @Loc 1           @Loc 1           @Loc 1
-------------------------------------------------------------------------------------------------------
                1                1       372.412720       254.863174               0.      -191.462830
                1                2       307.079346       236.210678               0.      -213.464447
                1                3       299.035645       213.390457               0.      -180.267700
                1                4       234.266022       192.798706               0.      -198.362152
                2                1       208.905624       223.456802               0.      -199.750320
                2                2       265.020447       313.356537               0.      -218.244247
                2                3       227.227158       290.065674               0.      -185.492813
                2                4       279.820374       382.558258               0.      -198.422577
                3                1       171.456039       352.781372               0.      -104.802315
                3                2       188.114319       390.100006               0.      -57.7075195
                3                3       86.6805954       185.593048               0.      -106.272095
                3                4       105.320145       227.527222               0.      -65.6167145
                4                1       250.374329       220.084259               0.      -37.4492111
                4                2       233.758270       136.227646               0.      -20.3019924
                4                3       286.934265       224.897156               0.      -50.9992714
                4                4       270.630615       149.463211               0.      -38.3563805
                5                1       267.963318       65.6191635               0.      -58.0744591
                5                2       393.849640       135.522171               0.      -57.8382568
                5                3       237.079056       56.9636917               0.      -102.015915
                5                4       357.521942       123.201469               0.      -109.102982
                6                1       382.558258       279.820374               0.      -198.422577
                6                2       313.356537       265.020447               0.      -218.244247
                6                3       290.065674       227.227158               0.      -185.492813
                6                4       223.456802       208.905624               0.      -199.750320
                7                1       192.798706       234.266022               0.      -198.362152
                7                2       236.210678       307.079346               0.      -213.464447
                7                3       213.390457       299.035645               0.      -180.267700
                7                4       254.863174       372.412720               0.      -191.462830
                8                1       123.201469       357.521942               0.      -109.102982
                8                2       135.522171       393.849640               0.      -57.8382568
                8                3       56.9636917       237.079056               0.      -102.015915
                8                4       65.6191635       267.963318               0.      -58.0744591
                9                1       149.463211       270.630615               0.      -38.3563805
                9                2       136.227646       233.758270               0.      -20.3019924
                9                3       224.897156       286.934265               0.      -50.9992714
                9                4       220.084259       250.374329               0.      -37.4492111
               10                1       227.527222       105.320145               0.      -65.6167145
               10                2       390.100006       188.114319               0.      -57.7075195
               10                3       185.593048       86.6805954               0.      -106.272095
               10                4       352.781372       171.456039               0.      -104.802315
               11                1       254.863174       372.412720               0.       191.462830
               11                2       236.210678       307.079346               0.       213.464447
               11                3       213.390457       299.035645               0.       180.267700
               11                4       192.798706       234.266022               0.       198.362152
               12                1       223.456802       208.905624               0.       199.750320
               12                2       313.356537       265.020447               0.       218.244247
               12                3       290.065674       227.227158               0.       185.492813
               12                4       382.558258       279.820374               0.       198.422577
               13                1       352.781372       171.456039               0.       104.802315
               13                2       390.100006       188.114319               0.       57.7075195
               13                3       185.593048       86.6805954               0.       106.272095
               13                4       227.527222       105.320145               0.       65.6167145
               14                1       220.084259       250.374329               0.       37.4492111
               14                2       136.227646       233.758270               0.       20.3019924
               14                3       224.897156       286.934265               0.       50.9992714
               14                4       149.463211       270.630615               0.       38.3563805
               15                1       65.6191635       267.963318               0.       58.0744591
               15                2       135.522171       393.849640               0.       57.8382568
               15                3       56.9636917       237.079056               0.       102.015915
               15                4       123.201469       357.521942               0.       109.102982
               16                1       279.820374       382.558258               0.       198.422577
               16                2       265.020447       313.356537               0.       218.244247
               16                3       227.227158       290.065674               0.       185.492813
               16                4       208.905624       223.456802               0.       199.750320
               17                1       234.266022       192.798706               0.       198.362152
               17                2       307.079346       236.210678               0.       213.464447
               17                3       299.035645       213.390457               0.       180.267700
               17                4       372.412720       254.863174               0.       191.462830
               18                1       357.521942       123.201469               0.       109.102982
               18                2       393.849640       135.522171               0.       57.8382568
               18                3       237.079056       56.9636917               0.       102.015915
               18                4       267.963318       65.6191635               0.       58.0744591
               19                1       270.630615       149.463211               0.       38.3563805
               19                2       233.758270       136.227646               0.       20.3019924
               19                3       286.934265       224.897156               0.       50.9992714
               19                4       250.374329       220.084259               0.       37.4492111
               20                1       105.320145       227.527222               0.       65.6167145
               20                2       188.114319       390.100006               0.       57.7075195
               20                3       86.6805954       185.593048               0.       106.272095
               20                4       171.456039       352.781372               0.       104.802315
               21                1       382.558258       279.820374               0.      -198.422577
               21                2       313.356537       265.020447               0.      -218.244247
               21                3       290.065674       227.227158               0.      -185.492813
               21                4       223.456802       208.905624               0.      -199.750320
               22                1       192.798706       234.266022               0.      -198.362152
               22                2       236.210678       307.079346               0.      -213.464447
               22                3       213.390457       299.035645               0.      -180.267700
               22                4       254.863174       372.412720               0.      -191.462830
               23                1       123.201469       357.521942               0.      -109.102982
               23                2       135.522171       393.849640               0.      -57.8382568
               23                3       56.9636917       237.079056               0.      -102.015915
               23                4       65.6191635       267.963318               0.      -58.0744591
               24                1       149.463211       270.630615               0.      -38.3563805
               24                2       136.227646       233.758270               0.      -20.3019924
               24                3       224.897156       286.934265               0.      -50.9992714
               24                4       220.084259       250.374329               0.      -37.4492111
               25                1       227.527222       105.320145               0.      -65.6167145
               25                2       390.100006       188.114319               0.      -57.7075195
               25                3       185.593048       86.6805954               0.      -106.272095
               25                4       352.781372       171.456039               0.      -104.802315
               26                1       279.820374       382.558258               0.       198.422577
               26                2       265.020447       313.356537               0.       218.244247
               26                3       227.227158       290.065674               0.       185.492813
               26                4       208.905624       223.456802               0.       199.750320
               27                1       234.266022       192.798706               0.       198.362152
               27                2       307.079346       236.210678               0.       213.464447
               27                3       299.035645       213.390457               0.       180.267700
               27                4       372.412720       254.863174               0.       191.462830
               28                1       357.521942       123.201469               0.       109.102982
               28                2       393.849640       135.522171               0.       57.8382568
               28                3       237.079056       56.9636917               0.       102.015915
               28                4       267.963318       65.6191635               0.       58.0744591
               29                1       270.630615       149.463211               0.       38.3563805
               29                2       233.758270       136.227646               0.       20.3019924
               29                3       286.934265       224.897156               0.       50.9992714
               29                4       250.374329       220.084259               0.       37.4492111
               30                1       105.320145       227.527222               0.       65.6167145
               30                2       188.114319       390.100006               0.       57.7075195
               30                3       86.6805954       185.593048               0.       106.272095
               30                4       171.456039       352.781372               0.       104.802315
               31                1       254.863174       372.412720               0.       191.462830
               31                2       236.210678       307.079346               0.       213.464447
               31                3       213.390457       299.035645               0.       180.267700
               31                4       192.798706       234.266022               0.       198.362152
               32                1       223.456802       208.905624               0.       199.750320
               32                2       313.356537       265.020447               0.       218.244247
               32                3       290.065674       227.227158               0.       185.492813
               32                4       382.558258       279.820374               0.       198.422577
               33                1       352.781372       171.456039               0.       104.802315
               33                2       390.100006       188.114319               0.       57.7075195
               33                3       185.593048       86.6805954               0.       106.272095
               33                4       227.527222       105.320145               0.       65.6167145
               34                1       220.084259       250.374329               0.       37.4492111
               34                2       136.227646       233.758270               0.       20.3019924
               34                3       224.897156       286.934265               0.       50.9992714
               34                4       149.463211       270.630615               0.       38.3563805
               35                1       65.6191635       267.963318               0.       58.0744591
               35                2       135.522171       393.849640               0.       57.8382568
               35                3       56.9636917       237.079056               0.       102.015915
               35                4       123.201469       357.521942               0.       109.102982
               36                1       372.412720       254.863174               0.      -191.462830
               36                2       307.079346       236.210678               0.      -213.464447
               36                3       299.035645       213.390457               0.      -180.267700
               36                4       234.266022       192.798706               0.      -198.362152
               37                1       208.905624       223.456802               0.      -199.750320
               37                2       265.020447       313.356537               0.      -218.244247
               37                3       227.227158       290.065674               0.      -185.492813
               37                4       279.820374       382.558258               0.      -198.422577
               38                1       171.456039       352.781372               0.      -104.802315
               38                2       188.114319       390.100006               0.      -57.7075195
               38                3       86.6805954       185.593048               0.      -106.272095
               38                4       105.320145       227.527222               0.      -65.6167145
               39                1       250.374329       220.084259               0.      -37.4492111
               39                2       233.758270       136.227646               0.      -20.3019924
               39                3       286.934265       224.897156               0.      -50.9992714
               39                4       270.630615       149.463211               0.      -38.3563805
               40                1       267.963318       65.6191635               0.      -58.0744591
               40                2       393.849640       135.522171               0.      -57.8382568
               40                3       237.079056       56.9636917               0.      -102.015915
               40                4       357.521942       123.201469               0.      -109.102982


********************************************************************************
Field Output Report, written Wed Apr 16 15:18:45 2025

Source 1
---------

   ODB: C:/lnms/Vid/cross-hole/cross-hole-U.odb
   Step: loading
   Frame: Increment     10: Step Time =    1.000

Loc 1 : Integration point values from source 1

Output sorted by column "Element Label".

Field Output reported at integration points for region: SPECIMEN-1.Region_1

          Element              Int            S.S11            S.S22            S.S33            S.S12
            Label               Pt           @Loc 1           @Loc 1           @Loc 1           @Loc 1
-------------------------------------------------------------------------------------------------------
                1                1       399.426605       273.914490               0.      -206.674866
                1                2       327.515076       251.469650               0.      -230.916931
                1                3       321.198029       230.012833               0.      -193.995773
                1                4       250.366196       205.917419               0.      -213.873398
                2                1       223.007050       238.543259               0.      -215.503220
                2                2       283.167175       334.178375               0.      -236.204010
                2                3       242.983032       310.994293               0.      -200.140579
                2                4       299.433136       409.733582               0.      -214.774277
                3                1       180.435181       373.537262               0.      -112.942886
                3                2       199.193710       414.869507               0.      -61.6340942
                3                3       87.8506241       190.900482               0.      -114.114693
                3                4       109.078812       238.077805               0.      -69.9536591
                4                1       264.100830       231.622620               0.      -39.7723236
                4                2       244.766052       140.971130               0.      -21.5388584
                4                3       303.600769       237.261124               0.      -54.2712364
                4                4       284.994598       155.774857               0.      -40.7904205
                5                1       282.079407       68.0776291               0.      -62.0227585
                5                2       418.043457       143.023132               0.      -61.5742455
                5                3       246.460358       56.1908569               0.      -109.938400
                5                4       377.080780       127.121330               0.      -117.631111
                6                1       409.733582       299.433136               0.      -214.774277
                6                2       334.178375       283.167175               0.      -236.204010
                6                3       310.994293       242.983032               0.      -200.140579
                6                4       238.543259       223.007050               0.      -215.503220
                7                1       205.917419       250.366196               0.      -213.873398
                7                2       251.469650       327.515076               0.      -230.916931
                7                3       230.012833       321.198029               0.      -193.995773
                7                4       273.914490       399.426605               0.      -206.674866
                8                1       127.121330       377.080780               0.      -117.631111
                8                2       143.023132       418.043457               0.      -61.5742455
                8                3       56.1908569       246.460358               0.      -109.938400
                8                4       68.0776291       282.079407               0.      -62.0227585
                9                1       155.774857       284.994598               0.      -40.7904205
                9                2       140.971130       244.766052               0.      -21.5388584
                9                3       237.261124       303.600769               0.      -54.2712364
                9                4       231.622620       264.100830               0.      -39.7723236
               10                1       238.077805       109.078812               0.      -69.9536591
               10                2       414.869507       199.193710               0.      -61.6340942
               10                3       190.900482       87.8506241               0.      -114.114693
               10                4       373.537262       180.435181               0.      -112.942886
               11                1       273.914490       399.426605               0.       206.674866
               11                2       251.469650       327.515076               0.       230.916931
               11                3       230.012833       321.198029               0.       193.995773
               11                4       205.917419       250.366196               0.       213.873398
               12                1       238.543259       223.007050               0.       215.503220
               12                2       334.178375       283.167175               0.       236.204010
               12                3       310.994293       242.983032               0.       200.140579
               12                4       409.733582       299.433136               0.       214.774277
               13                1       373.537262       180.435181               0.       112.942886
               13                2       414.869507       199.193710               0.       61.6340942
               13                3       190.900482       87.8506241               0.       114.114693
               13                4       238.077805       109.078812               0.       69.9536591
               14                1       231.622620       264.100830               0.       39.7723236
               14                2       140.971130       244.766052               0.       21.5388584
               14                3       237.261124       303.600769               0.       54.2712364
               14                4       155.774857       284.994598               0.       40.7904205
               15                1       68.0776291       282.079407               0.       62.0227585
               15                2       143.023132       418.043457               0.       61.5742455
               15                3       56.1908569       246.460358               0.       109.938400
               15                4       127.121330       377.080780               0.       117.631111
               16                1       299.433136       409.733582               0.       214.774277
               16                2       283.167175       334.178375               0.       236.204010
               16                3       242.983032       310.994293               0.       200.140579
               16                4       223.007050       238.543259               0.       215.503220
               17                1       250.366196       205.917419               0.       213.873398
               17                2       327.515076       251.469650               0.       230.916931
               17                3       321.198029       230.012833               0.       193.995773
               17                4       399.426605       273.914490               0.       206.674866
               18                1       377.080780       127.121330               0.       117.631111
               18                2       418.043457       143.023132               0.       61.5742455
               18                3       246.460358       56.1908569               0.       109.938400
               18                4       282.079407       68.0776291               0.       62.0227585
               19                1       284.994598       155.774857               0.       40.7904205
               19                2       244.766052       140.971130               0.       21.5388584
               19                3       303.600769       237.261124               0.       54.2712364
               19                4       264.100830       231.622620               0.       39.7723236
               20                1       109.078812       238.077805               0.       69.9536591
               20                2       199.193710       414.869507               0.       61.6340942
               20                3       87.8506241       190.900482               0.       114.114693
               20                4       180.435181       373.537262               0.       112.942886
               21                1       409.733582       299.433136               0.      -214.774277
               21                2       334.178375       283.167175               0.      -236.204010
               21                3       310.994293       242.983032               0.      -200.140579
               21                4       238.543259       223.007050               0.      -215.503220
               22                1       205.917419       250.366196               0.      -213.873398
               22                2       251.469650       327.515076               0.      -230.916931
               22                3       230.012833       321.198029               0.      -193.995773
               22                4       273.914490       399.426605               0.      -206.674866
               23                1       127.121330       377.080780               0.      -117.631111
               23                2       143.023132       418.043457               0.      -61.5742455
               23                3       56.1908569       246.460358               0.      -109.938400
               23                4       68.0776291       282.079407               0.      -62.0227585
               24                1       155.774857       284.994598               0.      -40.7904205
               24                2       140.971130       244.766052               0.      -21.5388584
               24                3       237.261124       303.600769               0.      -54.2712364
               24                4       231.622620       264.100830               0.      -39.7723236
               25                1       238.077805       109.078812               0.      -69.9536591
               25                2       414.869507       199.193710               0.      -61.6340942
               25                3       190.900482       87.8506241               0.      -114.114693
               25                4       373.537262       180.435181               0.      -112.942886
               26                1       299.433136       409.733582               0.       214.774277
               26                2       283.167175       334.178375               0.       236.204010
               26                3       242.983032       310.994293               0.       200.140579
               26                4       223.007050       238.543259               0.       215.503220
               27                1       250.366196       205.917419               0.       213.873398
               27                2       327.515076       251.469650               0.       230.916931
               27                3       321.198029       230.012833               0.       193.995773
               27                4       399.426605       273.914490               0.       206.674866
               28                1       377.080780       127.121330               0.       117.631111
               28                2       418.043457       143.023132               0.       61.5742455
               28                3       246.460358       56.1908569               0.       109.938400
               28                4       282.079407       68.0776291               0.       62.0227585
               29                1       284.994598       155.774857               0.       40.7904205
               29                2       244.766052       140.971130               0.       21.5388584
               29                3       303.600769       237.261124               0.       54.2712364
               29                4       264.100830       231.622620               0.       39.7723236
               30                1       109.078812       238.077805               0.       69.9536591
               30                2       199.193710       414.869507               0.       61.6340942
               30                3       87.8506241       190.900482               0.       114.114693
               30                4       180.435181       373.537262               0.       112.942886
               31                1       273.914490       399.426605               0.       206.674866
               31                2       251.469650       327.515076               0.       230.916931
               31                3       230.012833       321.198029               0.       193.995773
               31                4       205.917419       250.366196               0.       213.873398
               32                1       238.543259       223.007050               0.       215.503220
               32                2       334.178375       283.167175               0.       236.204010
               32                3       310.994293       242.983032               0.       200.140579
               32                4       409.733582       299.433136               0.       214.774277
               33                1       373.537262       180.435181               0.       112.942886
               33                2       414.869507       199.193710               0.       61.6340942
               33                3       190.900482       87.8506241               0.       114.114693
               33                4       238.077805       109.078812               0.       69.9536591
               34                1       231.622620       264.100830               0.       39.7723236
               34                2       140.971130       244.766052               0.       21.5388584
               34                3       237.261124       303.600769               0.       54.2712364
               34                4       155.774857       284.994598               0.       40.7904205
               35                1       68.0776291       282.079407               0.       62.0227585
               35                2       143.023132       418.043457               0.       61.5742455
               35                3       56.1908569       246.460358               0.       109.938400
               35                4       127.121330       377.080780               0.       117.631111
               36                1       399.426605       273.914490               0.      -206.674866
               36                2       327.515076       251.469650               0.      -230.916931
               36                3       321.198029       230.012833               0.      -193.995773
               36                4       250.366196       205.917419               0.      -213.873398
               37                1       223.007050       238.543259               0.      -215.503220
               37                2       283.167175       334.178375               0.      -236.204010
               37                3       242.983032       310.994293               0.      -200.140579
               37                4       299.433136       409.733582               0.      -214.774277
               38                1       180.435181       373.537262               0.      -112.942886
               38                2       199.193710       414.869507               0.      -61.6340942
               38                3       87.8506241       190.900482               0.      -114.114693
               38                4       109.078812       238.077805               0.      -69.9536591
               39                1       264.100830       231.622620               0.      -39.7723236
               39                2       244.766052       140.971130               0.      -21.5388584
               39                3       303.600769       237.261124               0.      -54.2712364
               39                4       284.994598       155.774857               0.      -40.7904205
               40                1       282.079407       68.0776291               0.      -62.0227585
               40                2       418.043457       143.023132               0.      -61.5742455
               40                3       246.460358       56.1908569               0.      -109.938400
               40                4       377.080780       127.121330               0.      -117.631111


