********************************************************************************
Field Output Report, written Thu Apr 24 12:36:35 2025

Source 1
---------

   ODB: C:/lnms/Vid/cross-hole/PopravljeniRP2.odb
   Step: loading
   Frame: Increment      0: Step Time =    0.000

Loc 1 : Integration point values from source 1

Output sorted by column "Element Label".

Field Output reported at integration points for region: SPECIMEN-1.Region_1

          Element              Int            S.S11            S.S22            S.S33            S.S12
            Label               Pt           @Loc 1           @Loc 1           @Loc 1           @Loc 1
-------------------------------------------------------------------------------------------------------
                1                1               0.               0.               0.               0.
                1                2               0.               0.               0.               0.
                1                3               0.               0.               0.               0.
                1                4               0.               0.               0.               0.
                2                1               0.               0.               0.               0.
                2                2               0.               0.               0.               0.
                2                3               0.               0.               0.               0.
                2                4               0.               0.               0.               0.
                3                1               0.               0.               0.               0.
                3                2               0.               0.               0.               0.
                3                3               0.               0.               0.               0.
                3                4               0.               0.               0.               0.
                4                1               0.               0.               0.               0.
                4                2               0.               0.               0.               0.
                4                3               0.               0.               0.               0.
                4                4               0.               0.               0.               0.
                5                1               0.               0.               0.               0.
                5                2               0.               0.               0.               0.
                5                3               0.               0.               0.               0.
                5                4               0.               0.               0.               0.
                6                1               0.               0.               0.               0.
                6                2               0.               0.               0.               0.
                6                3               0.               0.               0.               0.
                6                4               0.               0.               0.               0.
                7                1               0.               0.               0.               0.
                7                2               0.               0.               0.               0.
                7                3               0.               0.               0.               0.
                7                4               0.               0.               0.               0.
                8                1               0.               0.               0.               0.
                8                2               0.               0.               0.               0.
                8                3               0.               0.               0.               0.
                8                4               0.               0.               0.               0.
                9                1               0.               0.               0.               0.
                9                2               0.               0.               0.               0.
                9                3               0.               0.               0.               0.
                9                4               0.               0.               0.               0.
               10                1               0.               0.               0.               0.
               10                2               0.               0.               0.               0.
               10                3               0.               0.               0.               0.
               10                4               0.               0.               0.               0.
               11                1               0.               0.               0.               0.
               11                2               0.               0.               0.               0.
               11                3               0.               0.               0.               0.
               11                4               0.               0.               0.               0.
               12                1               0.               0.               0.               0.
               12                2               0.               0.               0.               0.
               12                3               0.               0.               0.               0.
               12                4               0.               0.               0.               0.
               13                1               0.               0.               0.               0.
               13                2               0.               0.               0.               0.
               13                3               0.               0.               0.               0.
               13                4               0.               0.               0.               0.
               14                1               0.               0.               0.               0.
               14                2               0.               0.               0.               0.
               14                3               0.               0.               0.               0.
               14                4               0.               0.               0.               0.
               15                1               0.               0.               0.               0.
               15                2               0.               0.               0.               0.
               15                3               0.               0.               0.               0.
               15                4               0.               0.               0.               0.
               16                1               0.               0.               0.               0.
               16                2               0.               0.               0.               0.
               16                3               0.               0.               0.               0.
               16                4               0.               0.               0.               0.
               17                1               0.               0.               0.               0.
               17                2               0.               0.               0.               0.
               17                3               0.               0.               0.               0.
               17                4               0.               0.               0.               0.
               18                1               0.               0.               0.               0.
               18                2               0.               0.               0.               0.
               18                3               0.               0.               0.               0.
               18                4               0.               0.               0.               0.
               19                1               0.               0.               0.               0.
               19                2               0.               0.               0.               0.
               19                3               0.               0.               0.               0.
               19                4               0.               0.               0.               0.
               20                1               0.               0.               0.               0.
               20                2               0.               0.               0.               0.
               20                3               0.               0.               0.               0.
               20                4               0.               0.               0.               0.
               21                1               0.               0.               0.               0.
               21                2               0.               0.               0.               0.
               21                3               0.               0.               0.               0.
               21                4               0.               0.               0.               0.
               22                1               0.               0.               0.               0.
               22                2               0.               0.               0.               0.
               22                3               0.               0.               0.               0.
               22                4               0.               0.               0.               0.
               23                1               0.               0.               0.               0.
               23                2               0.               0.               0.               0.
               23                3               0.               0.               0.               0.
               23                4               0.               0.               0.               0.
               24                1               0.               0.               0.               0.
               24                2               0.               0.               0.               0.
               24                3               0.               0.               0.               0.
               24                4               0.               0.               0.               0.
               25                1               0.               0.               0.               0.
               25                2               0.               0.               0.               0.
               25                3               0.               0.               0.               0.
               25                4               0.               0.               0.               0.
               26                1               0.               0.               0.               0.
               26                2               0.               0.               0.               0.
               26                3               0.               0.               0.               0.
               26                4               0.               0.               0.               0.
               27                1               0.               0.               0.               0.
               27                2               0.               0.               0.               0.
               27                3               0.               0.               0.               0.
               27                4               0.               0.               0.               0.
               28                1               0.               0.               0.               0.
               28                2               0.               0.               0.               0.
               28                3               0.               0.               0.               0.
               28                4               0.               0.               0.               0.
               29                1               0.               0.               0.               0.
               29                2               0.               0.               0.               0.
               29                3               0.               0.               0.               0.
               29                4               0.               0.               0.               0.
               30                1               0.               0.               0.               0.
               30                2               0.               0.               0.               0.
               30                3               0.               0.               0.               0.
               30                4               0.               0.               0.               0.
               31                1               0.               0.               0.               0.
               31                2               0.               0.               0.               0.
               31                3               0.               0.               0.               0.
               31                4               0.               0.               0.               0.
               32                1               0.               0.               0.               0.
               32                2               0.               0.               0.               0.
               32                3               0.               0.               0.               0.
               32                4               0.               0.               0.               0.
               33                1               0.               0.               0.               0.
               33                2               0.               0.               0.               0.
               33                3               0.               0.               0.               0.
               33                4               0.               0.               0.               0.
               34                1               0.               0.               0.               0.
               34                2               0.               0.               0.               0.
               34                3               0.               0.               0.               0.
               34                4               0.               0.               0.               0.
               35                1               0.               0.               0.               0.
               35                2               0.               0.               0.               0.
               35                3               0.               0.               0.               0.
               35                4               0.               0.               0.               0.
               36                1               0.               0.               0.               0.
               36                2               0.               0.               0.               0.
               36                3               0.               0.               0.               0.
               36                4               0.               0.               0.               0.
               37                1               0.               0.               0.               0.
               37                2               0.               0.               0.               0.
               37                3               0.               0.               0.               0.
               37                4               0.               0.               0.               0.
               38                1               0.               0.               0.               0.
               38                2               0.               0.               0.               0.
               38                3               0.               0.               0.               0.
               38                4               0.               0.               0.               0.
               39                1               0.               0.               0.               0.
               39                2               0.               0.               0.               0.
               39                3               0.               0.               0.               0.
               39                4               0.               0.               0.               0.
               40                1               0.               0.               0.               0.
               40                2               0.               0.               0.               0.
               40                3               0.               0.               0.               0.
               40                4               0.               0.               0.               0.


********************************************************************************
Field Output Report, written Thu Apr 24 12:37:05 2025

Source 1
---------

   ODB: C:/lnms/Vid/cross-hole/PopravljeniRP2.odb
   Step: loading
   Frame: Increment      1: Step Time =   0.1000

Loc 1 : Integration point values from source 1

Output sorted by column "Element Label".

Field Output reported at integration points for region: SPECIMEN-1.Region_1

          Element              Int            S.S11            S.S22            S.S33            S.S12
            Label               Pt           @Loc 1           @Loc 1           @Loc 1           @Loc 1
-------------------------------------------------------------------------------------------------------
                1                1   10.7780615E+03   6.95718262E+03               0.  -6.25383545E+03
                1                2   9.39092871E+03   8.54031445E+03               0.  -6.65523779E+03
                1                3      7.43275E+03   4.64237158E+03               0.  -4.80932471E+03
                1                4   6.06466553E+03   5.80014014E+03               0.  -5.04643506E+03
                2                1   5.25943848E+03   6.41817480E+03               0.  -4.43817529E+03
                2                2   5.93976123E+03   7.36258398E+03               0.  -4.85796338E+03
                2                3   5.09917187E+03   6.80987939E+03               0.  -4.38488232E+03
                2                4   5.65052295E+03   7.77617090E+03               0.  -4.74000586E+03
                3                1   3.96829224E+03   7.60927490E+03               0.  -3.22719922E+03
                3                2   3.74254395E+03   7.81577637E+03               0.  -2.64390112E+03
                3                3   3.26316260E+03   5.61688184E+03               0.  -2.87643530E+03
                3                4   3.08169922E+03   5.70827051E+03               0.  -2.44917725E+03
                4                1   5.89608984E+03   5.04342139E+03               0.  -3.04607617E+03
                4                2   5.17796924E+03   2.49647510E+03               0.  -2.60104150E+03
                4                3   6.91476563E+03   5.17492285E+03               0.  -3.71664746E+03
                4                4   6.30941016E+03   2.78222778E+03               0.  -3.34426807E+03
                5                1   6.96245215E+03   2.45598022E+03               0.  -3.75472266E+03
                5                2   8.78760840E+03   3.13240283E+03               0.  -4.24719385E+03
                5                3   7.07240381E+03   3.42450098E+03               0.  -4.24446045E+03
                5                4   8.81372949E+03   4.37404883E+03               0.  -4.86515771E+03
                6                1   3.70823047E+03   2.33698901E+03               0.      -804.053833
                6                2   2.70520801E+03   2.10271411E+03               0.  -1.23773840E+03
                6                3   2.02190649E+03   1.78720056E+03               0.      -472.002533
                6                4   1.12938892E+03   1.56403101E+03               0.      -757.822815
                7                1       741.184753   1.61170630E+03               0.      -397.119171
                7                2      -125.533615   1.26509192E+03               0.      -32.2144203
                7                3   1.45121936E+03   1.76860144E+03               0.      -204.810074
                7                4       797.470581   1.48081787E+03               0.       172.265198
                8                1       591.293152   4.07878027E+03               0.       924.938416
                8                2   1.16843213E+03   4.49677686E+03               0.   1.57088184E+03
                8                3       334.096771   2.69790308E+03               0.       999.720581
                8                4       748.360718   2.93972046E+03               0.   1.48104395E+03
                9                1   1.18206824E+03   2.73441260E+03               0.   1.73756824E+03
                9                2   1.18941309E+03   2.68924780E+03               0.   2.04525342E+03
                9                3   2.17346582E+03   3.02841895E+03               0.   1.73923364E+03
                9                4   2.23378076E+03   3.00210864E+03               0.   2.02656592E+03
               10                1   2.37920410E+03   1.31588733E+03               0.       963.492310
               10                2   5.22488818E+03   2.16480103E+03               0.       885.108521
               10                3   2.16161450E+03   1.22151453E+03               0.       371.494934
               10                4   4.81909668E+03   2.00306506E+03               0.       70.5774612
               11                1   3.67426245E+03   8.48667871E+03               0.   2.79213599E+03
               11                2   3.72016553E+03   7.12126270E+03               0.   3.42195337E+03
               11                3   2.67175244E+03   6.11889893E+03               0.   2.12410107E+03
               11                4   2.64139307E+03   4.83360889E+03               0.   2.59728979E+03
               12                1   2.73653955E+03   4.29373437E+03               0.   2.39445850E+03
               12                2   3.97049756E+03   4.48376904E+03               0.   2.69034595E+03
               12                3   3.55004468E+03   4.65841602E+03               0.   2.09132690E+03
               12                4   4.90865088E+03   4.94589600E+03               0.   2.25426416E+03
               13                1   6.16928369E+03   3.34737012E+03               0.       405.857208
               13                2   6.40549561E+03   3.29973755E+03               0.      -137.546707
               13                3   4.35290137E+03   2.75573901E+03               0.       136.380463
               13                4   4.47096973E+03   2.70510840E+03               0.      -259.782990
               14                1   4.51774121E+03   5.73555273E+03               0.  -1.27241040E+03
               14                2   2.33181714E+03   5.08980469E+03               0.  -1.68442664E+03
               14                3   4.63721094E+03   6.62732910E+03               0.      -701.632507
               14                4   2.58339893E+03   6.08033496E+03               0.  -1.05051465E+03
               15                1   2.10647876E+03   7.18333301E+03               0.      -452.639404
               15                2   3.42381006E+03   11.6299248E+03               0.      -326.814880
               15                3       1.8545E+03   6.75727344E+03               0.       901.845642
               15                4   3.00988525E+03   10.7939180E+03               0.   1.45613330E+03
               16                1   4.94589600E+03   4.90865088E+03               0.   2.25426416E+03
               16                2   4.48376904E+03   3.97049756E+03               0.   2.69034595E+03
               16                3   4.65841602E+03   3.55004468E+03               0.   2.09132690E+03
               16                4   4.29373437E+03   2.73653955E+03               0.   2.39445850E+03
               17                1   4.83360889E+03   2.64139307E+03               0.   2.59728979E+03
               17                2   7.12126270E+03   3.72016553E+03               0.   3.42195337E+03
               17                3   6.11889893E+03   2.67175244E+03               0.   2.12410107E+03
               17                4   8.48667871E+03   3.67426245E+03               0.   2.79213599E+03
               18                1   10.7939180E+03   3.00988525E+03               0.   1.45613330E+03
               18                2   11.6299248E+03   3.42381006E+03               0.      -326.814880
               18                3   6.75727344E+03       1.8545E+03               0.       901.845642
               18                4   7.18333301E+03   2.10647876E+03               0.      -452.639404
               19                1   6.08033496E+03   2.58339893E+03               0.  -1.05051465E+03
               19                2   5.08980469E+03   2.33181714E+03               0.  -1.68442664E+03
               19                3   6.62732910E+03   4.63721094E+03               0.      -701.632507
               19                4   5.73555273E+03   4.51774121E+03               0.  -1.27241040E+03
               20                1   2.70510840E+03   4.47096973E+03               0.      -259.782990
               20                2   3.29973755E+03   6.40549561E+03               0.      -137.546707
               20                3   2.75573901E+03   4.35290137E+03               0.       136.380463
               20                4   3.34737012E+03   6.16928369E+03               0.       405.857208
               21                1   7.77617090E+03   5.65052295E+03               0.  -4.74000586E+03
               21                2   7.36258398E+03   5.93976123E+03               0.  -4.85796338E+03
               21                3   6.80987939E+03   5.09917187E+03               0.  -4.38488232E+03
               21                4   6.41817480E+03   5.25943848E+03               0.  -4.43817529E+03
               22                1   5.80014014E+03   6.06466553E+03               0.  -5.04643506E+03
               22                2   8.54031445E+03   9.39092871E+03               0.  -6.65523779E+03
               22                3   4.64237158E+03      7.43275E+03               0.  -4.80932471E+03
               22                4   6.95718262E+03   10.7780615E+03               0.  -6.25383545E+03
               23                1   4.37404883E+03   8.81372949E+03               0.  -4.86515771E+03
               23                2   3.13240283E+03   8.78760840E+03               0.  -4.24719385E+03
               23                3   3.42450098E+03   7.07240381E+03               0.  -4.24446045E+03
               23                4   2.45598022E+03   6.96245215E+03               0.  -3.75472266E+03
               24                1   2.78222778E+03   6.30941016E+03               0.  -3.34426807E+03
               24                2   2.49647510E+03   5.17796924E+03               0.  -2.60104150E+03
               24                3   5.17492285E+03   6.91476563E+03               0.  -3.71664746E+03
               24                4   5.04342139E+03   5.89608984E+03               0.  -3.04607617E+03
               25                1   5.70827051E+03   3.08169922E+03               0.  -2.44917725E+03
               25                2   7.81577637E+03   3.74254395E+03               0.  -2.64390112E+03
               25                3   5.61688184E+03   3.26316260E+03               0.  -2.87643530E+03
               25                4   7.60927490E+03   3.96829224E+03               0.  -3.22719922E+03
               26                1   2.95144214E+03   6.52621875E+03               0.   3.21888477E+03
               26                2   3.51316626E+03   6.09073193E+03               0.   3.31493335E+03
               26                3   2.14730566E+03   5.29326514E+03               0.   2.69281641E+03
               26                4   2.48389087E+03   4.86078271E+03               0.   2.71446265E+03
               27                1   2.84743164E+03   3.97704370E+03               0.   2.81452686E+03
               27                2   3.76269897E+03   5.02203613E+03               0.   3.35314038E+03
               27                3   3.08002881E+03   3.38099536E+03               0.   2.86311572E+03
               27                4   3.97530591E+03   4.22947705E+03               0.   3.37216772E+03
               28                1   2.11906958E+03   1.96884961E+03               0.   2.54189575E+03
               28                2   1.53519702E+03       843.112183               0.   3.11670654E+03
               28                3   3.16657690E+03   1.94725745E+03               0.   2.42820215E+03
               28                4   2.79208179E+03   1.11877917E+03               0.   2.84472705E+03
               29                1   3.04063477E+03   1.40565613E+03               0.   2.80032202E+03
               29                2   2.80832129E+03   1.36468115E+03               0.   2.38193188E+03
               29                3   3.42099951E+03   2.75048438E+03               0.   2.85142749E+03
               29                4   3.22495483E+03   2.78526929E+03               0.   2.46394385E+03
               30                1   1.71596838E+03   3.64745239E+03               0.   1.78586743E+03
               30                2   2.61824854E+03   6.63529932E+03               0.   1.89855603E+03
               30                3   1.69797559E+03   3.44192358E+03               0.   2.40640576E+03
               30                4   2.55983618E+03   6.24043018E+03               0.   2.75085010E+03
               31                1   4.22947705E+03   3.97530591E+03               0.   3.37216772E+03
               31                2   5.02203613E+03   3.76269897E+03               0.   3.35314038E+03
               31                3   3.38099536E+03   3.08002881E+03               0.   2.86311572E+03
               31                4   3.97704370E+03   2.84743164E+03               0.   2.81452686E+03
               32                1   4.86078271E+03   2.48389087E+03               0.   2.71446265E+03
               32                2   6.09073193E+03   3.51316626E+03               0.   3.31493335E+03
               32                3   5.29326514E+03   2.14730566E+03               0.   2.69281641E+03
               32                4   6.52621875E+03   2.95144214E+03               0.   3.21888477E+03
               33                1   6.24043018E+03   2.55983618E+03               0.   2.75085010E+03
               33                2   6.63529932E+03   2.61824854E+03               0.   1.89855603E+03
               33                3   3.44192358E+03   1.69797559E+03               0.   2.40640576E+03
               33                4   3.64745239E+03   1.71596838E+03               0.   1.78586743E+03
               34                1   2.78526929E+03   3.22495483E+03               0.   2.46394385E+03
               34                2   1.36468115E+03   2.80832129E+03               0.   2.38193188E+03
               34                3   2.75048438E+03   3.42099951E+03               0.   2.85142749E+03
               34                4   1.40565613E+03   3.04063477E+03               0.   2.80032202E+03
               35                1   1.11877917E+03   2.79208179E+03               0.   2.84472705E+03
               35                2       843.112183   1.53519702E+03               0.   3.11670654E+03
               35                3   1.94725745E+03   3.16657690E+03               0.   2.42820215E+03
               35                4   1.96884961E+03   2.11906958E+03               0.   2.54189575E+03
               36                1   1.48081787E+03       797.470581               0.       172.265198
               36                2   1.26509192E+03      -125.533615               0.      -32.2144203
               36                3   1.76860144E+03   1.45121936E+03               0.      -204.810074
               36                4   1.61170630E+03       741.184753               0.      -397.119171
               37                1   1.56403101E+03   1.12938892E+03               0.      -757.822815
               37                2   2.10271411E+03   2.70520801E+03               0.  -1.23773840E+03
               37                3   1.78720056E+03   2.02190649E+03               0.      -472.002533
               37                4   2.33698901E+03   3.70823047E+03               0.      -804.053833
               38                1   2.00306506E+03   4.81909668E+03               0.       70.5774612
               38                2   2.16480103E+03   5.22488818E+03               0.       885.108521
               38                3   1.22151453E+03   2.16161450E+03               0.       371.494934
               38                4   1.31588733E+03   2.37920410E+03               0.       963.492310
               39                1   3.00210864E+03   2.23378076E+03               0.   2.02656592E+03
               39                2   2.68924780E+03   1.18941309E+03               0.   2.04525342E+03
               39                3   3.02841895E+03   2.17346582E+03               0.   1.73923364E+03
               39                4   2.73441260E+03   1.18206824E+03               0.   1.73756824E+03
               40                1   2.93972046E+03       748.360718               0.   1.48104395E+03
               40                2   4.49677686E+03   1.16843213E+03               0.   1.57088184E+03
               40                3   2.69790308E+03       334.096771               0.       999.720581
               40                4   4.07878027E+03       591.293152               0.       924.938416


********************************************************************************
Field Output Report, written Thu Apr 24 12:37:09 2025

Source 1
---------

   ODB: C:/lnms/Vid/cross-hole/PopravljeniRP2.odb
   Step: loading
   Frame: Increment      2: Step Time =   0.2000

Loc 1 : Integration point values from source 1

Output sorted by column "Element Label".

Field Output reported at integration points for region: SPECIMEN-1.Region_1

          Element              Int            S.S11            S.S22            S.S33            S.S12
            Label               Pt           @Loc 1           @Loc 1           @Loc 1           @Loc 1
-------------------------------------------------------------------------------------------------------
                1                1   20.8965078E+03   13.5606660E+03               0.  -12.3386602E+03
                1                2   18.2049297E+03   16.2975557E+03               0.  -13.1126123E+03
                1                3   14.6672793E+03   9.26440430E+03               0.  -9.66443066E+03
                1                4   11.9803936E+03   11.2875195E+03               0.  -10.1395322E+03
                2                1   10.4522676E+03   12.5315957E+03               0.  -9.01044629E+03
                2                2   11.7752529E+03   14.5118467E+03               0.  -9.85129297E+03
                2                3   10.1984590E+03   13.3955566E+03               0.  -8.86407129E+03
                2                4   11.2917617E+03   15.4295664E+03               0.  -9.56348828E+03
                3                1   7.78401416E+03   14.8641465E+03               0.  -6.37106641E+03
                3                2   7.33372803E+03   15.2671357E+03               0.  -5.19797949E+03
                3                3   6.36659863E+03   10.8365547E+03               0.  -5.67534326E+03
                3                4   6.00085254E+03   11.0133027E+03               0.   -4.8078125E+03
                4                1   11.5039883E+03   9.80539258E+03               0.  -5.81777637E+03
                4                2   10.1633408E+03   4.95332910E+03               0.  -4.96761182E+03
                4                3   13.4918936E+03     10.11475E+03               0.  -7.09834033E+03
                4                4   12.3795107E+03   5.57490283E+03               0.  -6.40629492E+03
                5                1   13.6867715E+03   4.94290527E+03               0.  -7.23494873E+03
                5                2   17.4717324E+03   6.34443311E+03               0.  -8.14665234E+03
                5                3   13.7559648E+03   6.59205078E+03               0.  -8.26157520E+03
                5                4   17.3146484E+03    8.4261875E+03               0.  -9.43596289E+03
                6                1   7.23870020E+03   4.52725195E+03               0.  -1.61615137E+03
                6                2   5.29157080E+03   4.10593652E+03               0.  -2.44887671E+03
                6                3   3.94836279E+03   3.42798340E+03               0.      -944.501892
                6                4   2.19935278E+03   3.01603149E+03               0.  -1.49204456E+03
                7                1   1.44572546E+03   3.11619922E+03               0.      -776.783691
                7                2      -221.603348   2.44601807E+03               0.      -68.2161789
                7                3   2.81919507E+03   3.41975708E+03               0.      -409.140991
                7                4   1.57054761E+03   2.86305078E+03               0.       320.734711
                8                1   1.19844421E+03   7.86700977E+03               0.   1.84125244E+03
                8                2   2.29450244E+03   8.61855371E+03               0.   3.06980957E+03
                8                3       693.150330   5.20548486E+03               0.   1.96412793E+03
                8                4   1.48056763E+03   5.63766260E+03               0.   2.88484375E+03
                9                1    2.3391875E+03   5.22874072E+03               0.   3.37281934E+03
                9                2   2.36282227E+03   5.10451709E+03               0.   3.98537622E+03
                9                3   4.31310205E+03   5.81325635E+03               0.   3.35325684E+03
                9                4   4.44154883E+03   5.72903271E+03               0.   3.92134229E+03
               10                1   4.70058887E+03   2.43913428E+03               0.   1.84592957E+03
               10                2   10.2423818E+03   4.10150049E+03               0.   1.64387561E+03
               10                3   4.27184326E+03   2.30444580E+03               0.       688.235901
               10                4   9.45733398E+03   3.85205151E+03               0.       71.0765762
               11                1   6.94127051E+03   16.8095957E+03               0.   5.50460547E+03
               11                2   7.06717187E+03   14.2779971E+03               0.   6.74473682E+03
               11                3   5.00452783E+03   12.1998135E+03               0.   4.23581885E+03
               11                4   4.98219824E+03   9.77121582E+03               0.   5.17748926E+03
               12                1   5.23025391E+03   8.64214453E+03               0.   4.79189551E+03
               12                2   7.52190771E+03   8.97669824E+03               0.   5.36921484E+03
               12                3   6.79896289E+03   9.33636426E+03               0.   4.22658936E+03
               12                4   9.32877832E+03   9.85912988E+03               0.   4.55428418E+03
               13                1   11.8308965E+03   6.55103955E+03               0.       948.353027
               13                2   12.3291758E+03   6.48407764E+03               0.      -107.216560
               13                3   8.29099023E+03   5.40221826E+03               0.       417.697876
               13                4   8.55196484E+03   5.32065674E+03               0.      -358.313416
               14                1   8.73055957E+03   11.2950029E+03               0.  -2.30535693E+03
               14                2   4.59599512E+03   10.0457852E+03               0.  -3.17714673E+03
               14                3   8.96024121E+03   13.1171318E+03               0.  -1.25103088E+03
               14                4   5.08557764E+03   12.0761699E+03               0.  -1.98566785E+03
               15                1   4.13159326E+03   14.2589297E+03               0.      -880.986877
               15                2   6.64176074E+03   22.7991816E+03               0.      -753.939514
               15                3   3.43820874E+03   13.4621201E+03               0.   1.75554041E+03
               15                4   5.56874951E+03   21.2654355E+03               0.   2.66317139E+03
               16                1   9.85912988E+03   9.32877832E+03               0.   4.55428418E+03
               16                2   8.97669824E+03   7.52190771E+03               0.   5.36921484E+03
               16                3   9.33636426E+03   6.79896289E+03               0.   4.22658936E+03
               16                4   8.64214453E+03   5.23025391E+03               0.   4.79189551E+03
               17                1   9.77121582E+03   4.98219824E+03               0.   5.17748926E+03
               17                2   14.2779971E+03   7.06717187E+03               0.   6.74473682E+03
               17                3   12.1998135E+03   5.00452783E+03               0.   4.23581885E+03
               17                4   16.8095957E+03   6.94127051E+03               0.   5.50460547E+03
               18                1   21.2654355E+03   5.56874951E+03               0.   2.66317139E+03
               18                2   22.7991816E+03   6.64176074E+03               0.      -753.939514
               18                3   13.4621201E+03   3.43820874E+03               0.   1.75554041E+03
               18                4   14.2589297E+03   4.13159326E+03               0.      -880.986877
               19                1   12.0761699E+03   5.08557764E+03               0.  -1.98566785E+03
               19                2   10.0457852E+03   4.59599512E+03               0.  -3.17714673E+03
               19                3   13.1171318E+03   8.96024121E+03               0.  -1.25103088E+03
               19                4   11.2950029E+03   8.73055957E+03               0.  -2.30535693E+03
               20                1   5.32065674E+03   8.55196484E+03               0.      -358.313416
               20                2   6.48407764E+03   12.3291758E+03               0.      -107.216560
               20                3   5.40221826E+03   8.29099023E+03               0.       417.697876
               20                4   6.55103955E+03   11.8308965E+03               0.       948.353027
               21                1   15.4295664E+03   11.2917617E+03               0.  -9.56348828E+03
               21                2   14.5118467E+03   11.7752529E+03               0.  -9.85129297E+03
               21                3   13.3955566E+03   10.1984590E+03               0.  -8.86407129E+03
               21                4   12.5315957E+03   10.4522676E+03               0.  -9.01044629E+03
               22                1   11.2875195E+03   11.9803936E+03               0.  -10.1395322E+03
               22                2   16.2975557E+03   18.2049297E+03               0.  -13.1126123E+03
               22                3   9.26440430E+03   14.6672793E+03               0.  -9.66443066E+03
               22                4   13.5606660E+03   20.8965078E+03               0.  -12.3386602E+03
               23                1    8.4261875E+03   17.3146484E+03               0.  -9.43596289E+03
               23                2   6.34443311E+03   17.4717324E+03               0.  -8.14665234E+03
               23                3   6.59205078E+03   13.7559648E+03               0.  -8.26157520E+03
               23                4   4.94290527E+03   13.6867715E+03               0.  -7.23494873E+03
               24                1   5.57490283E+03   12.3795107E+03               0.  -6.40629492E+03
               24                2   4.95332910E+03   10.1633408E+03               0.  -4.96761182E+03
               24                3     10.11475E+03   13.4918936E+03               0.  -7.09834033E+03
               24                4   9.80539258E+03   11.5039883E+03               0.  -5.81777637E+03
               25                1   11.0133027E+03   6.00085254E+03               0.   -4.8078125E+03
               25                2   15.2671357E+03   7.33372803E+03               0.  -5.19797949E+03
               25                3   10.8365547E+03   6.36659863E+03               0.  -5.67534326E+03
               25                4   14.8641465E+03   7.78401416E+03               0.  -6.37106641E+03
               26                1   5.60059229E+03   13.1288027E+03               0.   6.28798779E+03
               26                2   6.67212012E+03   12.2472559E+03               0.   6.53022607E+03
               26                3   4.04421973E+03   10.6142422E+03               0.   5.26405127E+03
               26                4   4.68975195E+03   9.73094531E+03               0.   5.34843652E+03
               27                1   5.36572607E+03   8.06958398E+03               0.   5.58425244E+03
               27                2   7.16994971E+03   10.1294043E+03               0.   6.63512891E+03
               27                3   5.89124707E+03   6.97316748E+03               0.   5.68177783E+03
               27                4   7.66555566E+03   8.66996387E+03               0.   6.67652197E+03
               28                1   4.08472241E+03   4.13552686E+03               0.   5.05091650E+03
               28                2   2.85736572E+03   1.82876880E+03               0.   6.18214795E+03
               28                3   6.04901563E+03   4.00365601E+03               0.   4.82243018E+03
               28                4   5.25770020E+03   2.30358154E+03               0.   5.63610986E+03
               29                1   5.73205176E+03   2.84902075E+03               0.   5.51561182E+03
               29                2   5.31466113E+03   2.74659937E+03               0.   4.66134082E+03
               29                3   6.50146582E+03   5.56992041E+03               0.   5.57585400E+03
               29                4   6.15486621E+03   5.62357812E+03               0.   4.78774512E+03
               30                1   3.20765259E+03   7.29729053E+03               0.   3.47014063E+03
               30                2   4.97531543E+03   13.1675029E+03               0.   3.65298706E+03
               30                3   3.13778857E+03   6.91307080E+03               0.   4.70120850E+03
               30                4   4.81120605E+03   12.4303057E+03               0.   5.32426318E+03
               31                1   8.66996387E+03   7.66555566E+03               0.   6.67652197E+03
               31                2   10.1294043E+03   7.16994971E+03               0.   6.63512891E+03
               31                3   6.97316748E+03   5.89124707E+03               0.   5.68177783E+03
               31                4   8.06958398E+03   5.36572607E+03               0.   5.58425244E+03
               32                1   9.73094531E+03   4.68975195E+03               0.   5.34843652E+03
               32                2   12.2472559E+03   6.67212012E+03               0.   6.53022607E+03
               32                3   10.6142422E+03   4.04421973E+03               0.   5.26405127E+03
               32                4   13.1288027E+03   5.60059229E+03               0.   6.28798779E+03
               33                1   12.4303057E+03   4.81120605E+03               0.   5.32426318E+03
               33                2   13.1675029E+03   4.97531543E+03               0.   3.65298706E+03
               33                3   6.91307080E+03   3.13778857E+03               0.   4.70120850E+03
               33                4   7.29729053E+03   3.20765259E+03               0.   3.47014063E+03
               34                1   5.62357812E+03   6.15486621E+03               0.   4.78774512E+03
               34                2   2.74659937E+03   5.31466113E+03               0.   4.66134082E+03
               34                3   5.56992041E+03   6.50146582E+03               0.   5.57585400E+03
               34                4   2.84902075E+03   5.73205176E+03               0.   5.51561182E+03
               35                1   2.30358154E+03   5.25770020E+03               0.   5.63610986E+03
               35                2   1.82876880E+03   2.85736572E+03               0.   6.18214795E+03
               35                3   4.00365601E+03   6.04901563E+03               0.   4.82243018E+03
               35                4   4.13552686E+03   4.08472241E+03               0.   5.05091650E+03
               36                1   2.86305078E+03   1.57054761E+03               0.       320.734711
               36                2   2.44601807E+03      -221.603348               0.      -68.2161789
               36                3   3.41975708E+03   2.81919507E+03               0.      -409.140991
               36                4   3.11619922E+03   1.44572546E+03               0.      -776.783691
               37                1   3.01603149E+03   2.19935278E+03               0.  -1.49204456E+03
               37                2   4.10593652E+03   5.29157080E+03               0.  -2.44887671E+03
               37                3   3.42798340E+03   3.94836279E+03               0.      -944.501892
               37                4   4.52725195E+03   7.23870020E+03               0.  -1.61615137E+03
               38                1   3.85205151E+03   9.45733398E+03               0.       71.0765762
               38                2   4.10150049E+03   10.2423818E+03               0.   1.64387561E+03
               38                3   2.30444580E+03   4.27184326E+03               0.       688.235901
               38                4   2.43913428E+03   4.70058887E+03               0.   1.84592957E+03
               39                1   5.72903271E+03   4.44154883E+03               0.   3.92134229E+03
               39                2   5.10451709E+03   2.36282227E+03               0.   3.98537622E+03
               39                3   5.81325635E+03   4.31310205E+03               0.   3.35325684E+03
               39                4   5.22874072E+03    2.3391875E+03               0.   3.37281934E+03
               40                1   5.63766260E+03   1.48056763E+03               0.   2.88484375E+03
               40                2   8.61855371E+03   2.29450244E+03               0.   3.06980957E+03
               40                3   5.20548486E+03       693.150330               0.   1.96412793E+03
               40                4   7.86700977E+03   1.19844421E+03               0.   1.84125244E+03


********************************************************************************
Field Output Report, written Thu Apr 24 12:37:13 2025

Source 1
---------

   ODB: C:/lnms/Vid/cross-hole/PopravljeniRP2.odb
   Step: loading
   Frame: Increment      3: Step Time =   0.3000

Loc 1 : Integration point values from source 1

Output sorted by column "Element Label".

Field Output reported at integration points for region: SPECIMEN-1.Region_1

          Element              Int            S.S11            S.S22            S.S33            S.S12
            Label               Pt           @Loc 1           @Loc 1           @Loc 1           @Loc 1
-------------------------------------------------------------------------------------------------------
                1                1   30.3936289E+03   19.8398027E+03               0.  -18.2443281E+03
                1                2   26.5008965E+03   23.3883457E+03               0.  -19.3678887E+03
                1                3   21.6854141E+03   13.8659648E+03               0.  -14.5290723E+03
                1                4     17.75425E+03   16.5119824E+03               0.  -15.2415791E+03
                2                1   15.5711719E+03   18.3706523E+03               0.  -13.6810361E+03
                2                2   17.5071895E+03   21.4563242E+03               0.  -14.9431191E+03
                2                3   15.2792803E+03   19.7706426E+03               0.  -13.4108711E+03
                2                4   16.9078965E+03   22.9467637E+03               0.  -14.4462412E+03
                3                1   11.4321377E+03   21.7636465E+03               0.  -9.41894727E+03
                3                2   10.7712021E+03   22.3556348E+03               0.  -7.65763135E+03
                3                3   9.30606543E+03   15.6859023E+03               0.  -8.39047266E+03
                3                4   8.76283203E+03   15.9443877E+03               0.  -7.07503271E+03
                4                1   16.8478516E+03   14.2920342E+03               0.  -8.34212598E+03
                4                2   14.9634961E+03   7.35113037E+03               0.  -7.12192432E+03
                4                3   19.7508438E+03      14.8065E+03               0.  -10.1773574E+03
                4                4   18.2098086E+03   8.33866602E+03               0.  -9.20982715E+03
                5                1   20.1595137E+03   7.41846191E+03               0.  -10.4618828E+03
                5                2   25.9864336E+03   9.56381641E+03               0.  -11.7369629E+03
                5                3   20.0661133E+03   9.51436133E+03               0.  -12.0628604E+03
                5                4   25.4861641E+03   12.1635762E+03               0.  -13.7369541E+03
                6                1   10.5957734E+03   6.57919238E+03               0.  -2.43179395E+03
                6                2   7.76136377E+03   6.01118701E+03               0.  -3.63102539E+03
                6                3   5.78384326E+03   4.93469580E+03               0.  -1.41693762E+03
                6                4   3.21496411E+03   4.36394336E+03               0.  -2.20371240E+03
                7                1   2.11789380E+03   4.52093262E+03               0.  -1.14126111E+03
                7                2      -290.088959   3.55025610E+03               0.      -109.471771
                7                3   4.11239941E+03   4.96306348E+03               0.      -612.702393
                7                4   2.32134180E+03   4.15686816E+03               0.       447.095398
                8                1   1.81573743E+03   11.3774941E+03               0.   2.74197363E+03
                8                2   3.37526880E+03   12.3918916E+03               0.   4.49532715E+03
                8                3   1.07152356E+03   7.53111475E+03               0.   2.89191211E+03
                8                4   2.19275464E+03   8.10999414E+03               0.   4.21313232E+03
                9                1   3.46698364E+03   7.50149365E+03               0.   4.90985303E+03
                9                2   3.51515283E+03   7.26900391E+03               0.   5.82310059E+03
                9                3   6.41160156E+03   8.37365527E+03               0.   4.84901221E+03
                9                4   6.61509131E+03   8.20470313E+03               0.   5.69026367E+03
               10                1   6.96207471E+03   3.39233472E+03               0.   2.65122412E+03
               10                2   15.0566846E+03   5.83496289E+03               0.   2.28789624E+03
               10                3   6.32791162E+03   3.26312939E+03               0.       953.906982
               10                4   13.9156602E+03   5.55891406E+03               0.       9.72856617
               11                1   9.83895605E+03   24.9710703E+03               0.   8.13206689E+03
               11                2   10.0626133E+03   21.4440508E+03               0.   9.96042187E+03
               11                3   7.03575684E+03   18.2423848E+03               0.   6.32405908E+03
               11                4   7.04631836E+03   14.7963242E+03               0.   7.72811670E+03
               12                1   7.49955713E+03   13.0423398E+03               0.   7.18781836E+03
               12                2   10.7041396E+03   13.4898672E+03               0.   8.03642725E+03
               12                3   9.77262402E+03   14.0334521E+03               0.   6.39561035E+03
               12                4    13.320375E+03   14.7527256E+03               0.   6.89097461E+03
               13                1   17.0218965E+03   9.62900879E+03               0.   1.61414490E+03
               13                2   17.8016504E+03   9.55996289E+03               0.       75.6947250
               13                3   11.8438818E+03   7.95209180E+03               0.       827.015076
               13                4   12.2681484E+03   7.85148584E+03               0.      -313.120819
               14                1   12.6471084E+03   16.6857949E+03               0.  -3.13362158E+03
               14                2   6.78225732E+03   14.8709844E+03               0.  -4.50155908E+03
               14                3   12.9850645E+03   19.4688105E+03               0.  -1.67467334E+03
               14                4   7.50335645E+03   17.9815898E+03               0.  -2.82388232E+03
               15                1   6.07801611E+03   21.2169395E+03               0.  -1.29632520E+03
               15                2   9.67333984E+03   33.5243984E+03               0.  -1.27426660E+03
               15                3   4.77713037E+03   20.0962148E+03               0.   2.54592773E+03
               15                4   7.73597266E+03   31.4095215E+03               0.   3.63049927E+03
               16                1   14.7527256E+03    13.320375E+03               0.   6.89097461E+03
               16                2   13.4898672E+03   10.7041396E+03               0.   8.03642725E+03
               16                3   14.0334521E+03   9.77262402E+03               0.   6.39561035E+03
               16                4   13.0423398E+03   7.49955713E+03               0.   7.18781836E+03
               17                1   14.7963242E+03   7.04631836E+03               0.   7.72811670E+03
               17                2   21.4440508E+03   10.0626133E+03               0.   9.96042187E+03
               17                3   18.2423848E+03   7.03575684E+03               0.   6.32405908E+03
               17                4   24.9710703E+03   9.83895605E+03               0.   8.13206689E+03
               18                1   31.4095215E+03   7.73597266E+03               0.   3.63049927E+03
               18                2   33.5243984E+03   9.67333984E+03               0.  -1.27426660E+03
               18                3   20.0962148E+03   4.77713037E+03               0.   2.54592773E+03
               18                4   21.2169395E+03   6.07801611E+03               0.  -1.29632520E+03
               19                1   17.9815898E+03   7.50335645E+03               0.  -2.82388232E+03
               19                2   14.8709844E+03   6.78225732E+03               0.  -4.50155908E+03
               19                3   19.4688105E+03   12.9850645E+03               0.  -1.67467334E+03
               19                4   16.6857949E+03   12.6471084E+03               0.  -3.13362158E+03
               20                1   7.85148584E+03   12.2681484E+03               0.      -313.120819
               20                2   9.55996289E+03   17.8016504E+03               0.       75.6947250
               20                3   7.95209180E+03   11.8438818E+03               0.       827.015076
               20                4   9.62900879E+03   17.0218965E+03               0.   1.61414490E+03
               21                1   22.9467637E+03   16.9078965E+03               0.  -14.4462412E+03
               21                2   21.4563242E+03   17.5071895E+03               0.  -14.9431191E+03
               21                3   19.7706426E+03   15.2792803E+03               0.  -13.4108711E+03
               21                4   18.3706523E+03   15.5711719E+03               0.  -13.6810361E+03
               22                1   16.5119824E+03     17.75425E+03               0.  -15.2415791E+03
               22                2   23.3883457E+03   26.5008965E+03               0.  -19.3678887E+03
               22                3   13.8659648E+03   21.6854141E+03               0.  -14.5290723E+03
               22                4   19.8398027E+03   30.3936289E+03               0.  -18.2443281E+03
               23                1   12.1635762E+03   25.4861641E+03               0.  -13.7369541E+03
               23                2   9.56381641E+03   25.9864336E+03               0.  -11.7369629E+03
               23                3   9.51436133E+03   20.0661133E+03               0.  -12.0628604E+03
               23                4   7.41846191E+03   20.1595137E+03               0.  -10.4618828E+03
               24                1   8.33866602E+03   18.2098086E+03               0.  -9.20982715E+03
               24                2   7.35113037E+03   14.9634961E+03               0.  -7.12192432E+03
               24                3      14.8065E+03   19.7508438E+03               0.  -10.1773574E+03
               24                4   14.2920342E+03   16.8478516E+03               0.  -8.34212598E+03
               25                1   15.9443877E+03   8.76283203E+03               0.  -7.07503271E+03
               25                2   22.3556348E+03   10.7712021E+03               0.  -7.65763135E+03
               25                3   15.6859023E+03   9.30606543E+03               0.  -8.39047266E+03
               25                4   21.7636465E+03   11.4321377E+03               0.  -9.41894727E+03
               26                1   7.98808057E+03   19.7960820E+03               0.   9.21974219E+03
               26                2   9.52126074E+03   18.4652598E+03               0.   9.65160645E+03
               26                3   5.72392139E+03   15.9568408E+03               0.   7.72572656E+03
               26                4   6.65226514E+03   14.6099404E+03               0.   7.90966455E+03
               27                1   7.58985400E+03   12.2613711E+03               0.   8.30394043E+03
               27                2   10.2464102E+03   15.2944150E+03               0.   9.83965137E+03
               27                3   8.45835352E+03   10.7539893E+03               0.   8.45018945E+03
               27                4   11.0827158E+03   13.2847813E+03               0.   9.90521875E+03
               28                1   5.90580957E+03   6.46731104E+03               0.   7.51509375E+03
               28                2   3.99011230E+03   2.94513086E+03               0.   9.18487695E+03
               28                3   8.66587695E+03   6.14622412E+03               0.   7.17234375E+03
               28                4   7.42603271E+03   3.54601099E+03               0.   8.36543164E+03
               29                1   8.10699854E+03   4.32280322E+03               0.   8.14142822E+03
               29                2   7.54597217E+03   4.13743213E+03               0.   6.83859814E+03
               29                3   9.27404687E+03   8.43887207E+03               0.   8.17244141E+03
               29                4   8.81610254E+03   8.49437109E+03               0.   6.97547559E+03
               30                1   4.49948926E+03   10.9359941E+03               0.   5.05715674E+03
               30                2   7.10094287E+03   19.5926094E+03               0.   5.27286279E+03
               30                3   4.34575146E+03   10.3975703E+03               0.   6.88899072E+03
               30                4   6.78835596E+03   18.5595527E+03               0.   7.73109424E+03
               31                1   13.2847813E+03   11.0827158E+03               0.   9.90521875E+03
               31                2   15.2944150E+03   10.2464102E+03               0.   9.83965137E+03
               31                3   10.7539893E+03   8.45835352E+03               0.   8.45018945E+03
               31                4   12.2613711E+03   7.58985400E+03               0.   8.30394043E+03
               32                1   14.6099404E+03   6.65226514E+03               0.   7.90966455E+03
               32                2   18.4652598E+03   9.52126074E+03               0.   9.65160645E+03
               32                3   15.9568408E+03   5.72392139E+03               0.   7.72572656E+03
               32                4   19.7960820E+03   7.98808057E+03               0.   9.21974219E+03
               33                1   18.5595527E+03   6.78835596E+03               0.   7.73109424E+03
               33                2   19.5926094E+03   7.10094287E+03               0.   5.27286279E+03
               33                3   10.3975703E+03   4.34575146E+03               0.   6.88899072E+03
               33                4   10.9359941E+03   4.49948926E+03               0.   5.05715674E+03
               34                1   8.49437109E+03   8.81610254E+03               0.   6.97547559E+03
               34                2   4.13743213E+03   7.54597217E+03               0.   6.83859814E+03
               34                3   8.43887207E+03   9.27404687E+03               0.   8.17244141E+03
               34                4   4.32280322E+03   8.10699854E+03               0.   8.14142822E+03
               35                1   3.54601099E+03   7.42603271E+03               0.   8.36543164E+03
               35                2   2.94513086E+03   3.99011230E+03               0.   9.18487695E+03
               35                3   6.14622412E+03   8.66587695E+03               0.   7.17234375E+03
               35                4   6.46731104E+03   5.90580957E+03               0.   7.51509375E+03
               36                1   4.15686816E+03   2.32134180E+03               0.       447.095398
               36                2   3.55025610E+03      -290.088959               0.      -109.471771
               36                3   4.96306348E+03   4.11239941E+03               0.      -612.702393
               36                4   4.52093262E+03   2.11789380E+03               0.  -1.14126111E+03
               37                1   4.36394336E+03   3.21496411E+03               0.  -2.20371240E+03
               37                2   6.01118701E+03   7.76136377E+03               0.  -3.63102539E+03
               37                3   4.93469580E+03   5.78384326E+03               0.  -1.41693762E+03
               37                4   6.57919238E+03   10.5957734E+03               0.  -2.43179395E+03
               38                1   5.55891406E+03   13.9156602E+03               0.       9.72856617
               38                2   5.83496289E+03   15.0566846E+03               0.   2.28789624E+03
               38                3   3.26312939E+03   6.32791162E+03               0.       953.906982
               38                4   3.39233472E+03   6.96207471E+03               0.   2.65122412E+03
               39                1   8.20470313E+03   6.61509131E+03               0.   5.69026367E+03
               39                2   7.26900391E+03   3.51515283E+03               0.   5.82310059E+03
               39                3   8.37365527E+03   6.41160156E+03               0.   4.84901221E+03
               39                4   7.50149365E+03   3.46698364E+03               0.   4.90985303E+03
               40                1   8.10999414E+03   2.19275464E+03               0.   4.21313232E+03
               40                2   12.3918916E+03   3.37526880E+03               0.   4.49532715E+03
               40                3   7.53111475E+03   1.07152356E+03               0.   2.89191211E+03
               40                4   11.3774941E+03   1.81573743E+03               0.   2.74197363E+03


********************************************************************************
Field Output Report, written Thu Apr 24 12:37:17 2025

Source 1
---------

   ODB: C:/lnms/Vid/cross-hole/PopravljeniRP2.odb
   Step: loading
   Frame: Increment      4: Step Time =   0.4000

Loc 1 : Integration point values from source 1

Output sorted by column "Element Label".

Field Output reported at integration points for region: SPECIMEN-1.Region_1

          Element              Int            S.S11            S.S22            S.S33            S.S12
            Label               Pt           @Loc 1           @Loc 1           @Loc 1           @Loc 1
-------------------------------------------------------------------------------------------------------
                1                1   39.3750898E+03   25.8744805E+03               0.  -23.9962578E+03
                1                2   34.3705820E+03   29.9610625E+03               0.  -25.4575859E+03
                1                3   28.5074609E+03   18.4764492E+03               0.  -19.3927969E+03
                1                4   23.3986895E+03   21.5438535E+03               0.  -20.3467637E+03
                2                1   20.6099316E+03   23.9963613E+03               0.  -18.4331504E+03
                2                2   23.1296953E+03   28.2342832E+03               0.  -20.1128555E+03
                2                3   20.3296465E+03   25.9813809E+03               0.  -18.0149141E+03
                2                4   22.4847949E+03   30.3473379E+03               0.  -19.3771465E+03
                3                1   14.8808418E+03   28.3035098E+03               0.  -12.3439814E+03
                3                2   14.0555244E+03   29.0871484E+03               0.  -9.99443652E+03
                3                3   12.0593760E+03   20.1633301E+03               0.  -11.0068398E+03
                3                4     11.36975E+03   20.5076035E+03               0.  -9.23470312E+03
                4                1   21.9591328E+03   18.4985840E+03               0.  -10.6262344E+03
                4                2   19.5987441E+03   9.67501172E+03               0.  -9.07595508E+03
                4                3   25.7015332E+03   19.2270586E+03               0.  -12.9628818E+03
                4                4   23.7949141E+03   11.0372422E+03               0.  -11.7646133E+03
                5                1   26.3499004E+03   9.83535449E+03               0.  -13.4376074E+03
                5                2   34.2238828E+03   12.7092871E+03               0.  -15.0219189E+03
                5                3   25.9964863E+03   12.1676875E+03               0.  -15.6317803E+03
                5                4   33.2634219E+03   15.5442930E+03               0.  -17.7475684E+03
                6                1   13.7658027E+03   8.49234961E+03               0.  -3.24295215E+03
                6                2   10.1024932E+03   7.81063770E+03               0.  -4.77705420E+03
                6                3   7.52180176E+03   6.31428076E+03               0.  -1.88729834E+03
                6                4   4.17367480E+03   5.61021826E+03               0.  -2.89172778E+03
                7                1   2.75568823E+03   5.82596631E+03               0.  -1.49226001E+03
                7                2      -337.579224   4.57520068E+03               0.      -156.686020
                7                3   5.33040332E+03   6.39794336E+03               0.      -816.293457
                7                4   3.04420776E+03   5.35917334E+03               0.       551.802979
                8                1   2.43574365E+03   14.6190225E+03               0.   3.61598438E+03
                8                2   4.40688965E+03   15.8377607E+03               0.   5.84240186E+03
                8                3   1.46152551E+03   9.67694336E+03               0.   3.77690747E+03
                8                4   2.87959521E+03   10.3659434E+03               0.   5.46335205E+03
                9                1   4.55849414E+03   9.56360645E+03               0.   6.34848926E+03
                9                2   4.63905127E+03   9.19990039E+03               0.   7.55612793E+03
                9                3   8.45608008E+03   10.7199219E+03               0.   6.22978906E+03
                9                4   8.74074121E+03   10.4455068E+03               0.   7.33500391E+03
               10                1   9.15202148E+03   4.19388721E+03               0.   3.37920898E+03
               10                2   19.6481602E+03   7.38108105E+03               0.   2.82497314E+03
               10                3   8.31901758E+03   4.10855273E+03               0.   1.17101135E+03
               10                4   18.1739922E+03   7.12851514E+03               0.      -105.029945
               11                1   12.4132070E+03   32.9962422E+03               0.   10.6692676E+03
               11                2   12.7402588E+03   28.6180898E+03               0.   13.0632168E+03
               11                3   8.80701855E+03   24.2621836E+03               0.   8.37694434E+03
               11                4   8.86465820E+03   19.9078809E+03               0.   10.2369023E+03
               12                1   9.55815332E+03   17.5050273E+03               0.   9.57554199E+03
               12                2   13.5540684E+03   18.0455879E+03               0.   10.6881309E+03
               12                3   12.4893770E+03   18.7617402E+03               0.   8.58790234E+03
               12                4   16.9265703E+03   19.6495840E+03               0.   9.25456934E+03
               13                1   21.7643379E+03   12.6152871E+03               0.   2.39704346E+03
               13                2   22.8382324E+03   12.5430664E+03               0.       402.604095
               13                3   15.0209082E+03   10.4288262E+03               0.   1.35043506E+03
               13                4   15.6237109E+03   10.3076396E+03               0.      -139.304367
               14                1   16.2650361E+03   21.9304043E+03               0.  -3.78673486E+03
               14                2   8.88501367E+03   19.5886465E+03               0.  -5.67742578E+03
               14                3   16.7154609E+03   25.6975313E+03               0.  -1.99855493E+03
               14                4   9.83641504E+03   23.8109004E+03               0.  -3.58437793E+03
               15                1   7.95410400E+03   28.0687305E+03               0.  -1.71348157E+03
               15                2   12.5393623E+03   43.8364766E+03               0.  -1.88774939E+03
               15                3   5.89852002E+03   26.6637754E+03               0.     3.254375E+03
               15                4   9.56414746E+03   41.2386328E+03               0.   4.36006104E+03
               16                1   19.6495840E+03   16.9265703E+03               0.   9.25456934E+03
               16                2   18.0455879E+03   13.5540684E+03               0.   10.6881309E+03
               16                3   18.7617402E+03   12.4893770E+03               0.   8.58790234E+03
               16                4   17.5050273E+03   9.55815332E+03               0.   9.57554199E+03
               17                1   19.9078809E+03   8.86465820E+03               0.   10.2369023E+03
               17                2   28.6180898E+03   12.7402588E+03               0.   13.0632168E+03
               17                3   24.2621836E+03   8.80701855E+03               0.   8.37694434E+03
               17                4   32.9962422E+03   12.4132070E+03               0.   10.6692676E+03
               18                1   41.2386328E+03   9.56414746E+03               0.   4.36006104E+03
               18                2   43.8364766E+03   12.5393623E+03               0.  -1.88774939E+03
               18                3   26.6637754E+03   5.89852002E+03               0.     3.254375E+03
               18                4   28.0687305E+03   7.95410400E+03               0.  -1.71348157E+03
               19                1   23.8109004E+03   9.83641504E+03               0.  -3.58437793E+03
               19                2   19.5886465E+03   8.88501367E+03               0.  -5.67742578E+03
               19                3   25.6975313E+03   16.7154609E+03               0.  -1.99855493E+03
               19                4   21.9304043E+03   16.2650361E+03               0.  -3.78673486E+03
               20                1   10.3076396E+03   15.6237109E+03               0.      -139.304367
               20                2   12.5430664E+03   22.8382324E+03               0.       402.604095
               20                3   10.4288262E+03   15.0209082E+03               0.   1.35043506E+03
               20                4   12.6152871E+03   21.7643379E+03               0.   2.39704346E+03
               21                1   30.3473379E+03   22.4847949E+03               0.  -19.3771465E+03
               21                2   28.2342832E+03   23.1296953E+03               0.  -20.1128555E+03
               21                3   25.9813809E+03   20.3296465E+03               0.  -18.0149141E+03
               21                4   23.9963613E+03   20.6099316E+03               0.  -18.4331504E+03
               22                1   21.5438535E+03   23.3986895E+03               0.  -20.3467637E+03
               22                2   29.9610625E+03   34.3705820E+03               0.  -25.4575859E+03
               22                3   18.4764492E+03   28.5074609E+03               0.  -19.3927969E+03
               22                4   25.8744805E+03   39.3750898E+03               0.  -23.9962578E+03
               23                1   15.5442930E+03   33.2634219E+03               0.  -17.7475684E+03
               23                2   12.7092871E+03   34.2238828E+03               0.  -15.0219189E+03
               23                3   12.1676875E+03   25.9964863E+03               0.  -15.6317803E+03
               23                4   9.83535449E+03   26.3499004E+03               0.  -13.4376074E+03
               24                1   11.0372422E+03   23.7949141E+03               0.  -11.7646133E+03
               24                2   9.67501172E+03   19.5987441E+03               0.  -9.07595508E+03
               24                3   19.2270586E+03   25.7015332E+03               0.  -12.9628818E+03
               24                4   18.4985840E+03   21.9591328E+03               0.  -10.6262344E+03
               25                1   20.5076035E+03     11.36975E+03               0.  -9.23470312E+03
               25                2   29.0871484E+03   14.0555244E+03               0.  -9.99443652E+03
               25                3   20.1633301E+03   12.0593760E+03               0.  -11.0068398E+03
               25                4   28.3035098E+03   14.8808418E+03               0.  -12.3439814E+03
               26                1   10.1518926E+03   26.5286836E+03               0.   12.0209941E+03
               26                2   12.0989346E+03   24.7496719E+03               0.   12.6806279E+03
               26                3   7.21861475E+03   21.3258867E+03               0.   10.0847041E+03
               26                4   8.40286523E+03   19.5058164E+03               0.   10.4017959E+03
               27                1   9.55962109E+03   16.5414863E+03               0.   10.9663018E+03
               27                2   13.0238916E+03   20.4958105E+03               0.   12.9581797E+03
               27                3   10.8119463E+03   14.7072090E+03               0.   11.1597080E+03
               27                4   14.2475049E+03   18.0448379E+03               0.   13.0475303E+03
               28                1   7.59648926E+03   8.93630762E+03               0.   9.91960059E+03
               28                2   4.96084814E+03   4.18106592E+03               0.   12.1095898E+03
               28                3   11.0395088E+03   8.35592480E+03               0.   9.46343359E+03
               28                4   9.32858691E+03   4.83849512E+03               0.   11.0189541E+03
               29                1   10.1978184E+03   5.81900293E+03               0.   10.6684619E+03
               29                2   9.52538770E+03   5.52785547E+03               0.   8.90915723E+03
               29                3   11.7695420E+03   11.3366240E+03               0.   10.6373682E+03
               29                4   11.2300664E+03   11.3755811E+03               0.   9.02810449E+03
               30                1   5.61350586E+03   14.5472021E+03               0.   6.54645313E+03
               30                2   9.01929395E+03   25.8951543E+03               0.   6.76219727E+03
               30                3   5.34506543E+03   13.8767588E+03               0.   8.96787012E+03
               30                4   8.51879883E+03   24.6074063E+03               0.   9.97444141E+03
               31                1   18.0448379E+03   14.2475049E+03               0.   13.0475303E+03
               31                2   20.4958105E+03   13.0238916E+03               0.   12.9581797E+03
               31                3   14.7072090E+03   10.8119463E+03               0.   11.1597080E+03
               31                4   16.5414863E+03   9.55962109E+03               0.   10.9663018E+03
               32                1   19.5058164E+03   8.40286523E+03               0.   10.4017959E+03
               32                2   24.7496719E+03   12.0989346E+03               0.   12.6806279E+03
               32                3   21.3258867E+03   7.21861475E+03               0.   10.0847041E+03
               32                4   26.5286836E+03   10.1518926E+03               0.   12.0209941E+03
               33                1   24.6074063E+03   8.51879883E+03               0.   9.97444141E+03
               33                2   25.8951543E+03   9.01929395E+03               0.   6.76219727E+03
               33                3   13.8767588E+03   5.34506543E+03               0.   8.96787012E+03
               33                4   14.5472021E+03   5.61350586E+03               0.   6.54645313E+03
               34                1   11.3755811E+03   11.2300664E+03               0.   9.02810449E+03
               34                2   5.52785547E+03   9.52538770E+03               0.   8.90915723E+03
               34                3   11.3366240E+03   11.7695420E+03               0.   10.6373682E+03
               34                4   5.81900293E+03   10.1978184E+03               0.   10.6684619E+03
               35                1   4.83849512E+03   9.32858691E+03               0.   11.0189541E+03
               35                2   4.18106592E+03   4.96084814E+03               0.   12.1095898E+03
               35                3   8.35592480E+03   11.0395088E+03               0.   9.46343359E+03
               35                4   8.93630762E+03   7.59648926E+03               0.   9.91960059E+03
               36                1   5.35917334E+03   3.04420776E+03               0.       551.802979
               36                2   4.57520068E+03      -337.579224               0.      -156.686020
               36                3   6.39794336E+03   5.33040332E+03               0.      -816.293457
               36                4   5.82596631E+03   2.75568823E+03               0.  -1.49226001E+03
               37                1   5.61021826E+03   4.17367480E+03               0.  -2.89172778E+03
               37                2   7.81063770E+03   10.1024932E+03               0.  -4.77705420E+03
               37                3   6.31428076E+03   7.52180176E+03               0.  -1.88729834E+03
               37                4   8.49234961E+03   13.7658027E+03               0.  -3.24295215E+03
               38                1   7.12851514E+03   18.1739922E+03               0.      -105.029945
               38                2   7.38108105E+03   19.6481602E+03               0.   2.82497314E+03
               38                3   4.10855273E+03   8.31901758E+03               0.   1.17101135E+03
               38                4   4.19388721E+03   9.15202148E+03               0.   3.37920898E+03
               39                1   10.4455068E+03   8.74074121E+03               0.   7.33500391E+03
               39                2   9.19990039E+03   4.63905127E+03               0.   7.55612793E+03
               39                3   10.7199219E+03   8.45608008E+03               0.   6.22978906E+03
               39                4   9.56360645E+03   4.55849414E+03               0.   6.34848926E+03
               40                1   10.3659434E+03   2.87959521E+03               0.   5.46335205E+03
               40                2   15.8377607E+03   4.40688965E+03               0.   5.84240186E+03
               40                3   9.67694336E+03   1.46152551E+03               0.   3.77690747E+03
               40                4   14.6190225E+03   2.43574365E+03               0.   3.61598438E+03


********************************************************************************
Field Output Report, written Thu Apr 24 12:37:23 2025

Source 1
---------

   ODB: C:/lnms/Vid/cross-hole/PopravljeniRP2.odb
   Step: loading
   Frame: Increment      5: Step Time =   0.5000

Loc 1 : Integration point values from source 1

Output sorted by column "Element Label".

Field Output reported at integration points for region: SPECIMEN-1.Region_1

          Element              Int            S.S11            S.S22            S.S33            S.S12
            Label               Pt           @Loc 1           @Loc 1           @Loc 1           @Loc 1
-------------------------------------------------------------------------------------------------------
                1                1   47.9028242E+03   31.6857227E+03               0.  -29.5970449E+03
                1                2   41.8721172E+03   36.0828789E+03               0.  -31.3890156E+03
                1                3   35.1475898E+03   23.0867461E+03               0.  -24.2370898E+03
                1                4   28.9295957E+03   26.4020625E+03               0.  -25.4380469E+03
                2                1   25.5781445E+03   29.4243516E+03               0.  -23.2450469E+03
                2                2   28.6624570E+03   34.8537109E+03               0.  -25.3414570E+03
                2                3   25.3520234E+03   32.0353613E+03               0.  -22.6595937E+03
                2                4   28.0311719E+03   37.6280312E+03               0.  -24.3442285E+03
                3                1   18.1272832E+03   34.4760039E+03               0.  -15.1350166E+03
                3                2   17.1850352E+03   35.4521328E+03               0.  -12.2037002E+03
                3                3   14.6287109E+03   24.2819199E+03               0.  -13.5155605E+03
                3                4   13.8257285E+03   24.7154570E+03               0.  -11.2826416E+03
                4                1   26.8562695E+03   22.4284082E+03               0.  -12.6893896E+03
                4                2   24.0779922E+03   11.9138232E+03               0.  -10.8454512E+03
                4                3   31.3629316E+03   23.3707480E+03               0.  -15.4773252E+03
                4                4   29.1424668E+03   13.6480937E+03               0.  -14.0863682E+03
                5                1   32.2624766E+03   12.1695430E+03               0.  -16.1742783E+03
                5                2   42.1657578E+03   15.7454170E+03               0.  -18.0207383E+03
                5                3   31.5719707E+03   14.5577109E+03               0.  -18.9754961E+03
                5                4   40.6601289E+03   18.5776992E+03               0.  -21.4801465E+03
                6                1   16.7574180E+03   10.2768057E+03               0.  -4.04523120E+03
                6                2   12.3199277E+03   9.50897168E+03               0.  -5.88524854E+03
                6                3   9.16694434E+03   7.57872070E+03               0.  -2.35350244E+03
                6                4   5.07904736E+03   6.76320361E+03               0.  -3.55592017E+03
                7                1   3.36112427E+03   7.03885693E+03               0.  -1.83029810E+03
                7                2      -366.842926   5.52710596E+03               0.      -209.380112
                7                3   6.47800732E+03   7.73263574E+03               0.  -1.01898267E+03
                7                4   3.73903125E+03   6.47720166E+03               0.       637.144531
                8                1   3.05340991E+03   17.6117832E+03               0.   4.45936475E+03
                8                2   5.38938965E+03   18.9868672E+03               0.   7.11292725E+03
                8                3   1.85819690E+03   11.6562793E+03               0.   4.61889697E+03
                8                4   3.53964502E+03   12.4251133E+03               0.   6.63882031E+03
                9                1   5.61169043E+03   11.4352607E+03               0.   7.69397461E+03
                9                2   5.73134375E+03   10.9206211E+03               0.   9.18847168E+03
                9                3   10.4411611E+03   12.8718965E+03               0.   7.50310352E+03
                9                4   10.8118047E+03   12.4744932E+03               0.   8.86225098E+03
               10                1   11.2683125E+03   4.86317187E+03               0.   4.03589453E+03
               10                2   24.0234199E+03   8.76162402E+03               0.   3.26691357E+03
               10                3   10.2429404E+03   4.85418555E+03               0.   1.34459985E+03
               10                4   22.2369043E+03   8.57385840E+03               0.      -265.293762
               11                1   14.7001396E+03   40.8880977E+03               0.   13.1161738E+03
               11                2   15.1307676E+03   35.7845156E+03               0.   16.0508477E+03
               11                3   10.3494004E+03   30.2561973E+03               0.   10.3884619E+03
               11                4   10.4629307E+03   25.0918848E+03               0.   12.6956475E+03
               12                1   11.4213389E+03   22.0272813E+03               0.   11.9481152E+03
               12                2   16.1028086E+03   22.6472520E+03               0.   13.3178408E+03
               12                3   14.9675156E+03   23.5207676E+03               0.   10.7932598E+03
               12                4   20.1827207E+03   24.5557012E+03               0.   11.6338740E+03
               13                1   26.0798281E+03   15.5189541E+03               0.   3.28069189E+03
               13                2   27.4558320E+03   15.4372119E+03               0.       858.299438
               13                3   17.8470859E+03   12.8404883E+03               0.   1.97106335E+03
               13                4   18.6402344E+03   12.6933682E+03               0.       147.824997
               14                1   19.5987227E+03   27.0339668E+03               0.  -4.29208838E+03
               14                2   10.9010498E+03   24.2008770E+03               0.  -6.72192871E+03
               14                3   20.1678574E+03   31.7972402E+03               0.  -2.24267310E+03
               14                4   12.0833945E+03   29.5531191E+03               0.  -4.27905469E+03
               15                1   9.76200098E+03   34.7995547E+03               0.  -2.13643286E+03
               15                2   15.2546533E+03   53.7445859E+03               0.  -2.58286987E+03
               15                3   6.82684521E+03   33.1447617E+03               0.   3.87597241E+03
               15                4   11.1020938E+03   50.7465312E+03               0.   4.86819922E+03
               16                1   24.5557012E+03   20.1827207E+03               0.   11.6338740E+03
               16                2   22.6472520E+03   16.1028086E+03               0.   13.3178408E+03
               16                3   23.5207676E+03   14.9675156E+03               0.   10.7932598E+03
               16                4   22.0272813E+03   11.4213389E+03               0.   11.9481152E+03
               17                1   25.0918848E+03   10.4629307E+03               0.   12.6956475E+03
               17                2   35.7845156E+03   15.1307676E+03               0.   16.0508477E+03
               17                3   30.2561973E+03   10.3494004E+03               0.   10.3884619E+03
               17                4   40.8880977E+03   14.7001396E+03               0.   13.1161738E+03
               18                1   50.7465312E+03   11.1020938E+03               0.   4.86819922E+03
               18                2   53.7445859E+03   15.2546533E+03               0.  -2.58286987E+03
               18                3   33.1447617E+03   6.82684521E+03               0.   3.87597241E+03
               18                4   34.7995547E+03   9.76200098E+03               0.  -2.13643286E+03
               19                1   29.5531191E+03   12.0833945E+03               0.  -4.27905469E+03
               19                2   24.2008770E+03   10.9010498E+03               0.  -6.72192871E+03
               19                3   31.7972402E+03   20.1678574E+03               0.  -2.24267310E+03
               19                4   27.0339668E+03   19.5987227E+03               0.  -4.29208838E+03
               20                1   12.6933682E+03   18.6402344E+03               0.       147.824997
               20                2   15.4372119E+03   27.4558320E+03               0.       858.299438
               20                3   12.8404883E+03   17.8470859E+03               0.   1.97106335E+03
               20                4   15.5189541E+03   26.0798281E+03               0.   3.28069189E+03
               21                1   37.6280312E+03   28.0311719E+03               0.  -24.3442285E+03
               21                2   34.8537109E+03   28.6624570E+03               0.  -25.3414570E+03
               21                3   32.0353613E+03   25.3520234E+03               0.  -22.6595937E+03
               21                4   29.4243516E+03   25.5781445E+03               0.  -23.2450469E+03
               22                1   26.4020625E+03   28.9295957E+03               0.  -25.4380469E+03
               22                2   36.0828789E+03   41.8721172E+03               0.  -31.3890156E+03
               22                3   23.0867461E+03   35.1475898E+03               0.  -24.2370898E+03
               22                4   31.6857227E+03   47.9028242E+03               0.  -29.5970449E+03
               23                1   18.5776992E+03   40.6601289E+03               0.  -21.4801465E+03
               23                2   15.7454170E+03   42.1657578E+03               0.  -18.0207383E+03
               23                3   14.5577109E+03   31.5719707E+03               0.  -18.9754961E+03
               23                4   12.1695430E+03   32.2624766E+03               0.  -16.1742783E+03
               24                1   13.6480937E+03   29.1424668E+03               0.  -14.0863682E+03
               24                2   11.9138232E+03   24.0779922E+03               0.  -10.8454512E+03
               24                3   23.3707480E+03   31.3629316E+03               0.  -15.4773252E+03
               24                4   22.4284082E+03   26.8562695E+03               0.  -12.6893896E+03
               25                1   24.7154570E+03   13.8257285E+03               0.  -11.2826416E+03
               25                2   35.4521328E+03   17.1850352E+03               0.  -12.2037002E+03
               25                3   24.2819199E+03   14.6287109E+03               0.  -13.5155605E+03
               25                4   34.4760039E+03   18.1272832E+03               0.  -15.1350166E+03
               26                1   12.1186768E+03   33.3145313E+03               0.   14.6983408E+03
               26                2   14.4331221E+03   31.0950508E+03               0.   15.6173682E+03
               26                3   8.55158691E+03   26.7187422E+03               0.   12.3481309E+03
               26                4   9.96502148E+03   24.4215391E+03               0.   12.8278828E+03
               27                1   11.3024766E+03   20.9002422E+03               0.   13.5673857E+03
               27                2   15.5244707E+03   25.7166738E+03               0.   15.9862178E+03
               27                3   12.9713408E+03   18.8173398E+03               0.   13.8050234E+03
               27                4   17.1724355E+03   22.9247988E+03               0.   16.0969453E+03
               28                1   9.15638965E+03   11.5149658E+03               0.   12.2549639E+03
               28                2   5.77763037E+03   5.52100537E+03               0.   14.9496309E+03
               28                3   13.1845947E+03   10.6152646E+03               0.   11.6872607E+03
               28                4   10.9860547E+03   6.17168311E+03               0.   13.5912813E+03
               29                1   12.0303945E+03   7.32969824E+03               0.   13.0948604E+03
               29                2   11.2778711E+03   6.91150977E+03               0.   10.8747451E+03
               29                3   14.0137061E+03   14.2463066E+03               0.   12.9711416E+03
               29                4   13.4209697E+03   14.2517715E+03               0.   10.9495098E+03
               30                1   6.57065820E+03   18.1200078E+03               0.   7.94222021E+03
               30                2   10.7542295E+03   32.0692285E+03               0.   8.12886719E+03
               30                3   6.15726660E+03   17.3373496E+03               0.   10.9416562E+03
               30                4   10.0286611E+03   30.5628105E+03               0.   12.0626885E+03
               31                1   22.9247988E+03   17.1724355E+03               0.   16.0969453E+03
               31                2   25.7166738E+03   15.5244707E+03               0.   15.9862178E+03
               31                3   18.8173398E+03   12.9713408E+03               0.   13.8050234E+03
               31                4   20.9002422E+03   11.3024766E+03               0.   13.5673857E+03
               32                1   24.4215391E+03   9.96502148E+03               0.   12.8278828E+03
               32                2   31.0950508E+03   14.4331221E+03               0.   15.6173682E+03
               32                3   26.7187422E+03   8.55158691E+03               0.   12.3481309E+03
               32                4   33.3145313E+03   12.1186768E+03               0.   14.6983408E+03
               33                1   30.5628105E+03   10.0286611E+03               0.   12.0626885E+03
               33                2   32.0692285E+03   10.7542295E+03               0.   8.12886719E+03
               33                3   17.3373496E+03   6.15726660E+03               0.   10.9416562E+03
               33                4   18.1200078E+03   6.57065820E+03               0.   7.94222021E+03
               34                1   14.2517715E+03   13.4209697E+03               0.   10.9495098E+03
               34                2   6.91150977E+03   11.2778711E+03               0.   10.8747451E+03
               34                3   14.2463066E+03   14.0137061E+03               0.   12.9711416E+03
               34                4   7.32969824E+03   12.0303945E+03               0.   13.0948604E+03
               35                1   6.17168311E+03   10.9860547E+03               0.   13.5912813E+03
               35                2   5.52100537E+03   5.77763037E+03               0.   14.9496309E+03
               35                3   10.6152646E+03   13.1845947E+03               0.   11.6872607E+03
               35                4   11.5149658E+03   9.15638965E+03               0.   12.2549639E+03
               36                1   6.47720166E+03   3.73903125E+03               0.       637.144531
               36                2   5.52710596E+03      -366.842926               0.      -209.380112
               36                3   7.73263574E+03   6.47800732E+03               0.  -1.01898267E+03
               36                4   7.03885693E+03   3.36112427E+03               0.  -1.83029810E+03
               37                1   6.76320361E+03   5.07904736E+03               0.  -3.55592017E+03
               37                2   9.50897168E+03   12.3199277E+03               0.  -5.88524854E+03
               37                3   7.57872070E+03   9.16694434E+03               0.  -2.35350244E+03
               37                4   10.2768057E+03   16.7574180E+03               0.  -4.04523120E+03
               38                1   8.57385840E+03   22.2369043E+03               0.      -265.293762
               38                2   8.76162402E+03   24.0234199E+03               0.   3.26691357E+03
               38                3   4.85418555E+03   10.2429404E+03               0.   1.34459985E+03
               38                4   4.86317187E+03   11.2683125E+03               0.   4.03589453E+03
               39                1   12.4744932E+03   10.8118047E+03               0.   8.86225098E+03
               39                2   10.9206211E+03   5.73134375E+03               0.   9.18847168E+03
               39                3   12.8718965E+03   10.4411611E+03               0.   7.50310352E+03
               39                4   11.4352607E+03   5.61169043E+03               0.   7.69397461E+03
               40                1   12.4251133E+03   3.53964502E+03               0.   6.63882031E+03
               40                2   18.9868672E+03   5.38938965E+03               0.   7.11292725E+03
               40                3   11.6562793E+03   1.85819690E+03               0.   4.61889697E+03
               40                4   17.6117832E+03   3.05340991E+03               0.   4.45936475E+03


********************************************************************************
Field Output Report, written Thu Apr 24 12:37:27 2025

Source 1
---------

   ODB: C:/lnms/Vid/cross-hole/PopravljeniRP2.odb
   Step: loading
   Frame: Increment      6: Step Time =   0.6000

Loc 1 : Integration point values from source 1

Output sorted by column "Element Label".

Field Output reported at integration points for region: SPECIMEN-1.Region_1

          Element              Int            S.S11            S.S22            S.S33            S.S12
            Label               Pt           @Loc 1           @Loc 1           @Loc 1           @Loc 1
-------------------------------------------------------------------------------------------------------
                1                1   56.0384219E+03   37.3137422E+03               0.  -35.0593828E+03
                1                2   49.0564180E+03   41.8317734E+03               0.  -37.1789961E+03
                1                3   41.6200625E+03   27.7040410E+03               0.  -29.0531660E+03
                1                4   34.3550508E+03   31.1180293E+03               0.  -30.5082832E+03
                2                1   30.4775957E+03   34.6837227E+03               0.  -28.1009355E+03
                2                2   34.1103516E+03   41.3318945E+03               0.  -30.6124844E+03
                2                3   30.3449004E+03   37.9529648E+03               0.  -27.3330039E+03
                2                4   33.5468125E+03   44.7948437E+03               0.  -29.3368008E+03
                3                1   21.1635801E+03   40.2813828E+03               0.  -17.7790586E+03
                3                2   20.1597148E+03   41.4516758E+03               0.  -14.2746865E+03
                3                3   17.0103438E+03   28.0517539E+03               0.  -15.9077793E+03
                3                4   16.1339736E+03   28.5791660E+03               0.  -13.2119209E+03
                4                1   31.5539238E+03   26.0858164E+03               0.  -14.5439844E+03
                4                2   28.4079570E+03   14.0592471E+03               0.  -12.4437432E+03
                4                3   36.7430703E+03   27.2333574E+03               0.  -17.7362187E+03
                4                4   34.2505977E+03   16.1516455E+03               0.  -16.1884873E+03
                5                1   37.8881680E+03   14.3983789E+03               0.  -18.6814941E+03
                5                2   49.7736797E+03   18.6387129E+03               0.  -20.7470625E+03
                5                3   36.8026523E+03   16.6863535E+03               0.  -22.0951055E+03
                5                4   47.6669258E+03   21.2673906E+03               0.  -24.9374629E+03
                6                1   19.5739492E+03   11.9391113E+03               0.  -4.83432617E+03
                6                2   14.4149111E+03   11.1082529E+03               0.  -6.95325195E+03
                6                3   10.7209844E+03   8.73700977E+03               0.  -2.81373584E+03
                6                4   5.93290771E+03   7.82893457E+03               0.  -4.19588965E+03
                7                1   3.93509082E+03   8.16467187E+03               0.  -2.15594531E+03
                7                2      -380.992645   6.40967383E+03               0.      -267.232971
                7                3   7.55830127E+03   8.97256055E+03               0.  -1.22023682E+03
                7                4   4.40476514E+03   7.51522461E+03               0.       704.835571
                8                1   3.66397290E+03   20.3707109E+03               0.   5.26778564E+03
                8                2   6.32198340E+03   21.8626270E+03               0.   8.30743945E+03
                8                3   2.25683472E+03   13.4782334E+03               0.   5.41671875E+03
                8                4   4.17092432E+03   14.3017734E+03               0.   7.74133057E+03
                9                1   6.62387354E+03   13.1313721E+03               0.   8.94989160E+03
                9                2   6.78832666E+03   12.4495811E+03               0.   10.7226680E+03
                9                3   12.3610889E+03   14.8439902E+03               0.   8.67488574E+03
                9                4   12.8213760E+03   14.3094492E+03               0.   10.2773135E+03
               10                1   13.3072168E+03   5.41610059E+03               0.   4.62522754E+03
               10                2   28.1827246E+03   9.99322754E+03               0.   3.62303662E+03
               10                3   12.0963701E+03   5.51080420E+03               0.   1.47853894E+03
               10                4   26.1036680E+03   9.90425293E+03               0.      -464.237732
               11                1   16.7324453E+03   48.6545352E+03               0.   15.4727969E+03
               11                2   17.2616035E+03   42.9349414E+03               0.   18.9221621E+03
               11                3   11.6913232E+03   36.2258164E+03               0.   12.3537959E+03
               11                4   11.8643115E+03   30.3396406E+03               0.   15.0980264E+03
               12                1   13.1024316E+03   26.6095117E+03               0.   14.2998516E+03
               12                2   18.3802148E+03   27.3020781E+03               0.   15.9214307E+03
               12                3   17.2251191E+03   28.3134785E+03               0.   13.0028379E+03
               12                4   23.1245313E+03    29.480875E+03               0.   14.0202129E+03
               13                1   29.9935391E+03   18.3537129E+03               0.   4.25192627E+03
               13                2   31.6765527E+03   18.2504375E+03               0.   1.42847693E+03
               13                3   20.3427051E+03   15.1966670E+03               0.   2.67363599E+03
               13                4   21.3354160E+03   15.0139961E+03               0.       532.784790
               14                1   22.6589785E+03   32.0020898E+03               0.  -4.67335254E+03
               14                2   12.8286074E+03   28.7118867E+03               0.  -7.65101904E+03
               14                3   23.3550547E+03   37.7658789E+03               0.  -2.42506226E+03
               14                4   14.2441514E+03   35.2029297E+03               0.  -4.91988330E+03
               15                1   11.5050928E+03   41.4024219E+03               0.  -2.57056909E+03
               15                2   17.8333418E+03   63.2644258E+03               0.  -3.35225781E+03
               15                3   7.58366211E+03   39.5272148E+03               0.   4.40570410E+03
               15                4   12.3909023E+03   59.9349922E+03               0.   5.16826172E+03
               16                1    29.480875E+03   23.1245313E+03               0.   14.0202129E+03
               16                2   27.3020781E+03   18.3802148E+03               0.   15.9214307E+03
               16                3   28.3134785E+03   17.2251191E+03               0.   13.0028379E+03
               16                4   26.6095117E+03   13.1024316E+03               0.   14.2998516E+03
               17                1   30.3396406E+03   11.8643115E+03               0.   15.0980264E+03
               17                2   42.9349414E+03   17.2616035E+03               0.   18.9221621E+03
               17                3   36.2258164E+03   11.6913232E+03               0.   12.3537959E+03
               17                4   48.6545352E+03   16.7324453E+03               0.   15.4727969E+03
               18                1   59.9349922E+03   12.3909023E+03               0.   5.16826172E+03
               18                2   63.2644258E+03   17.8333418E+03               0.  -3.35225781E+03
               18                3   39.5272148E+03   7.58366211E+03               0.   4.40570410E+03
               18                4   41.4024219E+03   11.5050928E+03               0.  -2.57056909E+03
               19                1   35.2029297E+03   14.2441514E+03               0.  -4.91988330E+03
               19                2   28.7118867E+03   12.8286074E+03               0.  -7.65101904E+03
               19                3   37.7658789E+03   23.3550547E+03               0.  -2.42506226E+03
               19                4   32.0020898E+03   22.6589785E+03               0.  -4.67335254E+03
               20                1   15.0139961E+03   21.3354160E+03               0.       532.784790
               20                2   18.2504375E+03   31.6765527E+03               0.   1.42847693E+03
               20                3   15.1966670E+03   20.3427051E+03               0.   2.67363599E+03
               20                4   18.3537129E+03   29.9935391E+03               0.   4.25192627E+03
               21                1   44.7948437E+03   33.5468125E+03               0.  -29.3368008E+03
               21                2   41.3318945E+03   34.1103516E+03               0.  -30.6124844E+03
               21                3   37.9529648E+03   30.3449004E+03               0.  -27.3330039E+03
               21                4   34.6837227E+03   30.4775957E+03               0.  -28.1009355E+03
               22                1   31.1180293E+03   34.3550508E+03               0.  -30.5082832E+03
               22                2   41.8317734E+03   49.0564180E+03               0.  -37.1789961E+03
               22                3   27.7040410E+03   41.6200625E+03               0.  -29.0531660E+03
               22                4   37.3137422E+03   56.0384219E+03               0.  -35.0593828E+03
               23                1   21.2673906E+03   47.6669258E+03               0.  -24.9374629E+03
               23                2   18.6387129E+03   49.7736797E+03               0.  -20.7470625E+03
               23                3   16.6863535E+03   36.8026523E+03               0.  -22.0951055E+03
               23                4   14.3983789E+03   37.8881680E+03               0.  -18.6814941E+03
               24                1   16.1516455E+03   34.2505977E+03               0.  -16.1884873E+03
               24                2   14.0592471E+03   28.4079570E+03               0.  -12.4437432E+03
               24                3   27.2333574E+03   36.7430703E+03               0.  -17.7362187E+03
               24                4   26.0858164E+03   31.5539238E+03               0.  -14.5439844E+03
               25                1   28.5791660E+03   16.1339736E+03               0.  -13.2119209E+03
               25                2   41.4516758E+03   20.1597148E+03               0.  -14.2746865E+03
               25                3   28.0517539E+03   17.0103438E+03               0.  -15.9077793E+03
               25                4   40.2813828E+03   21.1635801E+03               0.  -17.7790586E+03
               26                1   13.9142979E+03   40.1483281E+03               0.   17.2594063E+03
               26                2   16.5509258E+03   37.4999609E+03               0.   18.4640078E+03
               26                3   9.74435254E+03   32.1354941E+03               0.   14.5229395E+03
               26                4   11.3603018E+03   29.3604512E+03               0.   15.1914014E+03
               27                1   12.8452773E+03   25.3290273E+03               0.   16.1048965E+03
               27                2   17.7715020E+03   30.9429512E+03               0.   18.9212695E+03
               27                3   14.9562959E+03   23.0699727E+03               0.   16.3823643E+03
               27                4   19.8727539E+03   27.9023359E+03               0.   19.0489844E+03
               28                1   10.5914307E+03   14.1790830E+03               0.   14.5141279E+03
               28                2   6.45458740E+03   6.95135010E+03               0.   17.6985430E+03
               28                3   15.1172822E+03   12.9084590E+03               0.   13.8369688E+03
               28                4   12.4201494E+03   7.53695459E+03               0.   16.0768457E+03
               29                1   13.6290537E+03   8.84713379E+03               0.   15.4182402E+03
               29                2   12.8244092E+03   8.28182715E+03               0.   12.7362266E+03
               29                3   16.0300889E+03   17.1519688E+03               0.   15.1748877E+03
               29                4   15.4086455E+03   17.1080664E+03               0.   12.7438174E+03
               30                1   7.38881201E+03   21.6439629E+03               0.   9.24761816E+03
               30                2   12.3257422E+03   38.1078867E+03               0.   9.37934277E+03
               30                3   6.80069580E+03   20.7665937E+03               0.   12.8129336E+03
               30                4   11.3398857E+03   36.4141484E+03               0.   14.0025664E+03
               31                1   27.9023359E+03   19.8727539E+03               0.   19.0489844E+03
               31                2   30.9429512E+03   17.7715020E+03               0.   18.9212695E+03
               31                3   23.0699727E+03   14.9562959E+03               0.   16.3823643E+03
               31                4   25.3290273E+03   12.8452773E+03               0.   16.1048965E+03
               32                1   29.3604512E+03   11.3603018E+03               0.   15.1914014E+03
               32                2   37.4999609E+03   16.5509258E+03               0.   18.4640078E+03
               32                3   32.1354941E+03   9.74435254E+03               0.   14.5229395E+03
               32                4   40.1483281E+03   13.9142979E+03               0.   17.2594063E+03
               33                1   36.4141484E+03   11.3398857E+03               0.   14.0025664E+03
               33                2   38.1078867E+03   12.3257422E+03               0.   9.37934277E+03
               33                3   20.7665937E+03   6.80069580E+03               0.   12.8129336E+03
               33                4   21.6439629E+03   7.38881201E+03               0.   9.24761816E+03
               34                1   17.1080664E+03   15.4086455E+03               0.   12.7438174E+03
               34                2   8.28182715E+03   12.8244092E+03               0.   12.7362266E+03
               34                3   17.1519688E+03   16.0300889E+03               0.   15.1748877E+03
               34                4   8.84713379E+03   13.6290537E+03               0.   15.4182402E+03
               35                1   7.53695459E+03   12.4201494E+03               0.   16.0768457E+03
               35                2   6.95135010E+03   6.45458740E+03               0.   17.6985430E+03
               35                3   12.9084590E+03   15.1172822E+03               0.   13.8369688E+03
               35                4   14.1790830E+03   10.5914307E+03               0.   14.5141279E+03
               36                1   7.51522461E+03   4.40476514E+03               0.       704.835571
               36                2   6.40967383E+03      -380.992645               0.      -267.232971
               36                3   8.97256055E+03   7.55830127E+03               0.  -1.22023682E+03
               36                4   8.16467187E+03   3.93509082E+03               0.  -2.15594531E+03
               37                1   7.82893457E+03   5.93290771E+03               0.  -4.19588965E+03
               37                2   11.1082529E+03   14.4149111E+03               0.  -6.95325195E+03
               37                3   8.73700977E+03   10.7209844E+03               0.  -2.81373584E+03
               37                4   11.9391113E+03   19.5739492E+03               0.  -4.83432617E+03
               38                1   9.90425293E+03   26.1036680E+03               0.      -464.237732
               38                2   9.99322754E+03   28.1827246E+03               0.   3.62303662E+03
               38                3   5.51080420E+03   12.0963701E+03               0.   1.47853894E+03
               38                4   5.41610059E+03   13.3072168E+03               0.   4.62522754E+03
               39                1   14.3094492E+03   12.8213760E+03               0.   10.2773135E+03
               39                2   12.4495811E+03   6.78832666E+03               0.   10.7226680E+03
               39                3   14.8439902E+03   12.3610889E+03               0.   8.67488574E+03
               39                4   13.1313721E+03   6.62387354E+03               0.   8.94989160E+03
               40                1   14.3017734E+03   4.17092432E+03               0.   7.74133057E+03
               40                2   21.8626270E+03   6.32198340E+03               0.   8.30743945E+03
               40                3   13.4782334E+03   2.25683472E+03               0.   5.41671875E+03
               40                4   20.3707109E+03   3.66397290E+03               0.   5.26778564E+03


********************************************************************************
Field Output Report, written Thu Apr 24 12:37:31 2025

Source 1
---------

   ODB: C:/lnms/Vid/cross-hole/PopravljeniRP2.odb
   Step: loading
   Frame: Increment      7: Step Time =   0.7000

Loc 1 : Integration point values from source 1

Output sorted by column "Element Label".

Field Output reported at integration points for region: SPECIMEN-1.Region_1

          Element              Int            S.S11            S.S22            S.S33            S.S12
            Label               Pt           @Loc 1           @Loc 1           @Loc 1           @Loc 1
-------------------------------------------------------------------------------------------------------
                1                1   63.8448203E+03   42.7938477E+03               0.  -40.3966914E+03
                1                2   55.9732188E+03   47.2700391E+03               0.  -42.8453867E+03
                1                3   47.9467188E+03   32.3351797E+03               0.  -33.8362734E+03
                1                4   39.6871094E+03   35.7161328E+03               0.  -35.5552422E+03
                2                1   35.3156484E+03   39.7999023E+03               0.  -32.9904727E+03
                2                2   39.4856641E+03   47.6886016E+03               0.  -35.9166914E+03
                2                3    35.313625E+03   43.7541719E+03               0.  -32.0274199E+03
                2                4   39.0404492E+03   51.8600078E+03               0.  -34.3495078E+03
                3                1   23.9829570E+03   45.7183320E+03               0.  -20.2627598E+03
                3                2   22.9772773E+03   47.0839766E+03               0.  -16.1962070E+03
                3                3   19.2006387E+03   31.4807617E+03               0.  -18.1733379E+03
                3                4   18.2954199E+03   32.1067754E+03               0.  -15.0144141E+03
                4                1   36.0609609E+03   29.4738281E+03               0.  -16.1996191E+03
                4                2   32.5914082E+03   16.1040205E+03               0.  -13.8817695E+03
                4                3   41.8451406E+03   30.8115039E+03               0.  -19.7518574E+03
                4                4   39.1148320E+03   18.5315078E+03               0.  -18.0817930E+03
                5                1   43.2174609E+03   16.5030410E+03               0.  -20.9665332E+03
                5                2    57.016125E+03   21.3630527E+03               0.  -23.2106348E+03
                5                3   41.6952891E+03   18.5550332E+03               0.  -24.9905937E+03
                5                4   54.2755156E+03   23.6175293E+03               0.  -28.1204863E+03
                6                1   22.2202852E+03   13.4862168E+03               0.  -5.60657666E+03
                6                2   16.3899082E+03   12.6116562E+03               0.  -7.97937305E+03
                6                3   12.1861631E+03   9.79777930E+03               0.  -3.26618726E+03
                6                4   6.73707471E+03   8.81348535E+03               0.  -4.81122314E+03
                7                1   4.47836475E+03   9.20865723E+03               0.  -2.46946729E+03
                7                2      -382.792755   7.22676758E+03               0.      -329.643646
                7                3   8.57401172E+03   10.1231787E+03               0.  -1.41942346E+03
                7                4   5.04051611E+03   8.47749609E+03               0.       756.618713
                8                1   4.26325732E+03   22.9109238E+03               0.   6.03819287E+03
                8                2   7.20451611E+03   24.4873086E+03               0.    9.4273125E+03
                8                3   2.65331812E+03   15.1522539E+03               0.   6.16985010E+03
                8                4   4.77209912E+03   16.0098115E+03               0.   8.77310156E+03
                9                1   7.59303613E+03   14.6660801E+03               0.   10.1200146E+03
                9                2   7.80688330E+03   13.8037393E+03               0.   12.1616084E+03
                9                3   14.2111445E+03   16.6497207E+03               0.   9.75094434E+03
                9                4   14.7635283E+03   15.9665703E+03               0.   11.5855234E+03
               10                1   15.2656826E+03   5.86696631E+03               0.   5.15133447E+03
               10                2   32.1277031E+03       11.091E+03               0.   3.90198853E+03
               10                3   13.8767246E+03   6.08844434E+03               0.   1.57663330E+03
               10                4   29.7751191E+03   11.1289121E+03               0.      -695.780090
               11                1   18.5395469E+03   56.3046172E+03               0.   17.7404395E+03
               11                2   19.1587461E+03   50.0644297E+03               0.   21.6778789E+03
               11                3   12.8575020E+03   42.1726094E+03               0.   14.2696582E+03
               11                4   13.0897002E+03   35.6435898E+03               0.   17.4395859E+03
               12                1   14.6134131E+03   31.2514316E+03               0.   16.6254629E+03
               12                2   20.4113438E+03   32.0151191E+03               0.   18.4946152E+03
               12                3   19.2779922E+03   33.1418516E+03               0.   15.2088350E+03
               12                4   25.7816465E+03   34.4325273E+03               0.   16.4057656E+03
               13                1   33.5267344E+03   21.1295762E+03               0.   5.29850830E+03
               13                2   35.5186484E+03   20.9877520E+03               0.   2.10059790E+03
               13                3   22.5268984E+03   17.5041465E+03               0.   3.44439063E+03
               13                4   23.7258105E+03   17.2725020E+03               0.   1.00217963E+03
               14                1   25.4569160E+03   36.8367188E+03               0.  -4.95014648E+03
               14                2   14.6666367E+03   33.1224375E+03               0.  -8.47781445E+03
               14                3   26.2894414E+03   43.5988047E+03               0.  -2.56003052E+03
               14                4   16.3185342E+03   40.7526992E+03               0.  -5.51591162E+03
               15                1   13.1858789E+03   47.8685156E+03               0.  -3.01864648E+03
               15                2   20.2869863E+03   72.4077969E+03               0.  -4.18728906E+03
               15                3   8.18832861E+03   45.7980391E+03               0.   4.84185156E+03
               15                4   13.4660703E+03   68.8037422E+03               0.   5.27521240E+03
               16                1   34.4325273E+03   25.7816465E+03               0.   16.4057656E+03
               16                2   32.0151191E+03   20.4113438E+03               0.   18.4946152E+03
               16                3   33.1418516E+03   19.2779922E+03               0.   15.2088350E+03
               16                4   31.2514316E+03   14.6134131E+03               0.   16.6254629E+03
               17                1   35.6435898E+03   13.0897002E+03               0.   17.4395859E+03
               17                2   50.0644297E+03   19.1587461E+03               0.   21.6778789E+03
               17                3   42.1726094E+03   12.8575020E+03               0.   14.2696582E+03
               17                4   56.3046172E+03   18.5395469E+03               0.   17.7404395E+03
               18                1   68.8037422E+03   13.4660703E+03               0.   5.27521240E+03
               18                2   72.4077969E+03   20.2869863E+03               0.  -4.18728906E+03
               18                3   45.7980391E+03   8.18832861E+03               0.   4.84185156E+03
               18                4   47.8685156E+03   13.1858789E+03               0.  -3.01864648E+03
               19                1   40.7526992E+03   16.3185342E+03               0.  -5.51591162E+03
               19                2   33.1224375E+03   14.6666367E+03               0.  -8.47781445E+03
               19                3   43.5988047E+03   26.2894414E+03               0.  -2.56003052E+03
               19                4   36.8367188E+03   25.4569160E+03               0.  -4.95014648E+03
               20                1   17.2725020E+03   23.7258105E+03               0.   1.00217963E+03
               20                2   20.9877520E+03   35.5186484E+03               0.   2.10059790E+03
               20                3   17.5041465E+03   22.5268984E+03               0.   3.44439063E+03
               20                4   21.1295762E+03   33.5267344E+03               0.   5.29850830E+03
               21                1   51.8600078E+03   39.0404492E+03               0.  -34.3495078E+03
               21                2   47.6886016E+03   39.4856641E+03               0.  -35.9166914E+03
               21                3   43.7541719E+03    35.313625E+03               0.  -32.0274199E+03
               21                4   39.7999023E+03   35.3156484E+03               0.  -32.9904727E+03
               22                1   35.7161328E+03   39.6871094E+03               0.  -35.5552422E+03
               22                2   47.2700391E+03   55.9732188E+03               0.  -42.8453867E+03
               22                3   32.3351797E+03   47.9467188E+03               0.  -33.8362734E+03
               22                4   42.7938477E+03   63.8448203E+03               0.  -40.3966914E+03
               23                1   23.6175293E+03   54.2755156E+03               0.  -28.1204863E+03
               23                2   21.3630527E+03    57.016125E+03               0.  -23.2106348E+03
               23                3   18.5550332E+03   41.6952891E+03               0.  -24.9905937E+03
               23                4   16.5030410E+03   43.2174609E+03               0.  -20.9665332E+03
               24                1   18.5315078E+03   39.1148320E+03               0.  -18.0817930E+03
               24                2   16.1040205E+03   32.5914082E+03               0.  -13.8817695E+03
               24                3   30.8115039E+03   41.8451406E+03               0.  -19.7518574E+03
               24                4   29.4738281E+03   36.0609609E+03               0.  -16.1996191E+03
               25                1   32.1067754E+03   18.2954199E+03               0.  -15.0144141E+03
               25                2   47.0839766E+03   22.9772773E+03               0.  -16.1962070E+03
               25                3   31.4807617E+03   19.2006387E+03               0.  -18.1733379E+03
               25                4   45.7183320E+03   23.9829570E+03               0.  -20.2627598E+03
               26                1   15.5602256E+03   47.0270039E+03               0.   19.7109551E+03
               26                2   18.4748418E+03   43.9642969E+03               0.   21.2223086E+03
               26                3   10.8144766E+03   37.5776172E+03               0.   16.6149238E+03
               26                4   12.6062139E+03   34.3266211E+03               0.   17.4949648E+03
               27                1   14.2102949E+03   29.8212383E+03               0.   18.5775566E+03
               27                2   19.7853320E+03    36.164375E+03               0.   21.7622480E+03
               27                3   16.7830723E+03   27.4527090E+03               0.   18.8890391E+03
               27                4   22.3621641E+03   32.9590781E+03               0.   21.9007969E+03
               28                1   11.9054023E+03   16.9059570E+03               0.   16.6912949E+03
               28                2   7.00198828E+03   8.45798535E+03               0.   20.3512930E+03
               28                3   16.8516680E+03   15.2208408E+03               0.   15.9069951E+03
               28                4   13.6493506E+03   8.92547461E+03               0.   18.4713730E+03
               29                1   15.0149424E+03   10.3636104E+03               0.   17.6372227E+03
               29                2   14.1838857E+03   9.63284473E+03               0.   14.4950234E+03
               29                3   17.8390879E+03   20.0390527E+03               0.   17.2503848E+03
               29                4   17.2108652E+03   19.9314668E+03               0.   14.4152715E+03
               30                1   8.08378223E+03   25.1098945E+03               0.   10.4656924E+03
               30                2    13.751375E+03   44.0051523E+03               0.   10.5190928E+03
               30                3   7.29078320E+03   24.1529375E+03               0.     14.58425E+03
               30                4   12.4706738E+03   42.1510039E+03               0.   15.7999365E+03
               31                1   32.9590781E+03   22.3621641E+03               0.   21.9007969E+03
               31                2    36.164375E+03   19.7853320E+03               0.   21.7622480E+03
               31                3   27.4527090E+03   16.7830723E+03               0.   18.8890391E+03
               31                4   29.8212383E+03   14.2102949E+03               0.   18.5775566E+03
               32                1   34.3266211E+03   12.6062139E+03               0.   17.4949648E+03
               32                2   43.9642969E+03   18.4748418E+03               0.   21.2223086E+03
               32                3   37.5776172E+03   10.8144766E+03               0.   16.6149238E+03
               32                4   47.0270039E+03   15.5602256E+03               0.   19.7109551E+03
               33                1   42.1510039E+03   12.4706738E+03               0.   15.7999365E+03
               33                2   44.0051523E+03    13.751375E+03               0.   10.5190928E+03
               33                3   24.1529375E+03   7.29078320E+03               0.     14.58425E+03
               33                4   25.1098945E+03   8.08378223E+03               0.   10.4656924E+03
               34                1   19.9314668E+03   17.2108652E+03               0.   14.4152715E+03
               34                2   9.63284473E+03   14.1838857E+03               0.   14.4950234E+03
               34                3   20.0390527E+03   17.8390879E+03               0.   17.2503848E+03
               34                4   10.3636104E+03   15.0149424E+03               0.   17.6372227E+03
               35                1   8.92547461E+03   13.6493506E+03               0.   18.4713730E+03
               35                2   8.45798535E+03   7.00198828E+03               0.   20.3512930E+03
               35                3   15.2208408E+03   16.8516680E+03               0.   15.9069951E+03
               35                4   16.9059570E+03   11.9054023E+03               0.   16.6912949E+03
               36                1   8.47749609E+03   5.04051611E+03               0.       756.618713
               36                2   7.22676758E+03      -382.792755               0.      -329.643646
               36                3   10.1231787E+03   8.57401172E+03               0.  -1.41942346E+03
               36                4   9.20865723E+03   4.47836475E+03               0.  -2.46946729E+03
               37                1   8.81348535E+03   6.73707471E+03               0.  -4.81122314E+03
               37                2   12.6116562E+03   16.3899082E+03               0.  -7.97937305E+03
               37                3   9.79777930E+03   12.1861631E+03               0.  -3.26618726E+03
               37                4   13.4862168E+03   22.2202852E+03               0.  -5.60657666E+03
               38                1   11.1289121E+03   29.7751191E+03               0.      -695.780090
               38                2       11.091E+03   32.1277031E+03               0.   3.90198853E+03
               38                3   6.08844434E+03   13.8767246E+03               0.   1.57663330E+03
               38                4   5.86696631E+03   15.2656826E+03               0.   5.15133447E+03
               39                1   15.9665703E+03   14.7635283E+03               0.   11.5855234E+03
               39                2   13.8037393E+03   7.80688330E+03               0.   12.1616084E+03
               39                3   16.6497207E+03   14.2111445E+03               0.   9.75094434E+03
               39                4   14.6660801E+03   7.59303613E+03               0.   10.1200146E+03
               40                1   16.0098115E+03   4.77209912E+03               0.   8.77310156E+03
               40                2   24.4873086E+03   7.20451611E+03               0.    9.4273125E+03
               40                3   15.1522539E+03   2.65331812E+03               0.   6.16985010E+03
               40                4   22.9109238E+03   4.26325732E+03               0.   6.03819287E+03


********************************************************************************
Field Output Report, written Thu Apr 24 12:37:34 2025

Source 1
---------

   ODB: C:/lnms/Vid/cross-hole/PopravljeniRP2.odb
   Step: loading
   Frame: Increment      8: Step Time =   0.8000

Loc 1 : Integration point values from source 1

Output sorted by column "Element Label".

Field Output reported at integration points for region: SPECIMEN-1.Region_1

          Element              Int            S.S11            S.S22            S.S33            S.S12
            Label               Pt           @Loc 1           @Loc 1           @Loc 1           @Loc 1
-------------------------------------------------------------------------------------------------------
                1                1   71.3791484E+03   48.1588867E+03               0.  -45.6224727E+03
                1                2   62.6659766E+03   52.4502656E+03               0.  -48.4058242E+03
                1                3   54.1495391E+03   36.9880781E+03               0.  -38.5842930E+03
                1                4   44.9363594E+03   40.2173398E+03               0.  -40.5794609E+03
                2                1   40.0991758E+03   44.7960273E+03               0.  -37.9064805E+03
                2                2   44.7995859E+03   53.9439766E+03               0.  -41.2481758E+03
                2                3   40.2649609E+03   49.4584531E+03               0.  -36.7371992E+03
                2                4   44.5222969E+03   58.8382148E+03               0.  -39.3789258E+03
                3                1   26.5788457E+03   50.7857148E+03               0.  -22.5731738E+03
                3                2   25.6344551E+03   52.3468477E+03               0.  -17.9571133E+03
                3                3   21.1957520E+03   34.5761172E+03               0.  -20.3023457E+03
                3                4   20.3099863E+03   35.3050742E+03               0.  -16.6821797E+03
                4                1   40.3818672E+03   32.5951074E+03               0.  -17.6640605E+03
                4                2   36.6281016E+03   18.0419395E+03               0.  -15.1689053E+03
                4                3   46.6686914E+03   34.1030039E+03               0.  -21.5344375E+03
                4                4   43.7287148E+03   20.7740430E+03               0.  -19.7755664E+03
                5                1   48.2401328E+03   18.4677930E+03               0.  -23.0353633E+03
                5                2   63.8653906E+03   23.8975449E+03               0.  -25.4188145E+03
                5                3   46.2534961E+03   20.1652480E+03               0.  -27.6613242E+03
                5                4   60.4766953E+03   25.6326484E+03               0.  -31.0291543E+03
                6                1   24.7021719E+03   14.9249268E+03               0.  -6.35900537E+03
                6                2   18.2481543E+03   14.0228838E+03               0.  -8.96250879E+03
                6                3   13.5650527E+03   10.7689277E+03               0.  -3.70922095E+03
                6                4   7.49340430E+03   9.72261230E+03               0.  -5.40159424E+03
                7                1   4.99175098E+03   10.1759033E+03               0.  -2.77098389E+03
                7                2      -374.606720   7.98221143E+03               0.      -395.907135
                7                3   9.52775781E+03   11.1897842E+03               0.  -1.61587866E+03
                7                4   5.64572607E+03   9.36820898E+03               0.       794.196350
                8                1   4.84773926E+03   25.2469004E+03               0.   6.76854736E+03
                8                2   8.03722803E+03   26.8813516E+03               0.   10.4744160E+03
                8                3   3.04416064E+03   16.6875820E+03               0.   6.87828662E+03
                8                4   5.34230811E+03   17.5622344E+03               0.   9.73658105E+03
                9                1   8.51775293E+03   16.0524648E+03               0.   11.2081709E+03
                9                2   8.78447363E+03   14.9985703E+03               0.   13.5084424E+03
                9                3   15.9877080E+03   18.3015332E+03               0.   10.7369121E+03
                9                4   16.6334883E+03   17.4605410E+03               0.   12.7922305E+03
               10                1   17.1414316E+03   6.22838672E+03               0.   5.61828076E+03
               10                2   35.8610938E+03   12.0683887E+03               0.    4.1116875E+03
               10                3   15.5821855E+03   6.59608936E+03               0.   1.64245679E+03
               10                4   33.2533125E+03   12.2564092E+03               0.      -954.557068
               11                1   20.1472715E+03   63.8473203E+03               0.   19.9212676E+03
               11                2   20.8459785E+03   57.1703242E+03               0.   24.3197852E+03
               11                3   13.8692041E+03   48.0982734E+03               0.   16.1340986E+03
               11                4   14.1577383E+03   40.9976797E+03               0.   19.7173301E+03
               12                1   15.9652383E+03   35.9528555E+03               0.   18.9202383E+03
               12                2   22.2182715E+03   36.7902422E+03               0.   21.0334590E+03
               12                3   21.1408535E+03   38.0081211E+03               0.   17.4042617E+03
               12                4   28.1805488E+03   39.4172422E+03               0.   18.7834648E+03
               13                1   36.6998945E+03   23.8546504E+03               0.   6.40858789E+03
               13                2   39.0001719E+03   23.6534160E+03               0.   2.86248364E+03
               13                3   24.4180371E+03   19.7680684E+03               0.   4.27034766E+03
               13                4   25.8275586E+03   19.4710371E+03               0.   1.54332947E+03
               14                1   28.0031895E+03   41.5370352E+03               0.  -5.13897803E+03
               14                2   16.4144707E+03   37.4307578E+03               0.  -9.21342969E+03
               14                3   28.9825352E+03   49.2897305E+03               0.  -2.65918652E+03
               14                4   18.3063281E+03   46.1935156E+03               0.  -6.07427539E+03
               15                1   14.8061836E+03   54.1885273E+03               0.  -3.48178418E+03
               15                2   22.6253359E+03   81.1852031E+03               0.  -5.07910156E+03
               15                3   8.65781055E+03   51.9440781E+03               0.   5.18524756E+03
               15                4   14.3580059E+03   77.3526797E+03               0.   5.20491846E+03
               16                1   39.4172422E+03   28.1805488E+03               0.   18.7834648E+03
               16                2   36.7902422E+03   22.2182715E+03               0.   21.0334590E+03
               16                3   38.0081211E+03   21.1408535E+03               0.   17.4042617E+03
               16                4   35.9528555E+03   15.9652383E+03               0.   18.9202383E+03
               17                1   40.9976797E+03   14.1577383E+03               0.   19.7173301E+03
               17                2   57.1703242E+03   20.8459785E+03               0.   24.3197852E+03
               17                3   48.0982734E+03   13.8692041E+03               0.   16.1340986E+03
               17                4   63.8473203E+03   20.1472715E+03               0.   19.9212676E+03
               18                1   77.3526797E+03   14.3580059E+03               0.   5.20491846E+03
               18                2   81.1852031E+03   22.6253359E+03               0.  -5.07910156E+03
               18                3   51.9440781E+03   8.65781055E+03               0.   5.18524756E+03
               18                4   54.1885273E+03   14.8061836E+03               0.  -3.48178418E+03
               19                1   46.1935156E+03   18.3063281E+03               0.  -6.07427539E+03
               19                2   37.4307578E+03   16.4144707E+03               0.  -9.21342969E+03
               19                3   49.2897305E+03   28.9825352E+03               0.  -2.65918652E+03
               19                4   41.5370352E+03   28.0031895E+03               0.  -5.13897803E+03
               20                1   19.4710371E+03   25.8275586E+03               0.   1.54332947E+03
               20                2   23.6534160E+03   39.0001719E+03               0.   2.86248364E+03
               20                3   19.7680684E+03   24.4180371E+03               0.   4.27034766E+03
               20                4   23.8546504E+03   36.6998945E+03               0.   6.40858789E+03
               21                1   58.8382148E+03   44.5222969E+03               0.  -39.3789258E+03
               21                2   53.9439766E+03   44.7995859E+03               0.  -41.2481758E+03
               21                3   49.4584531E+03   40.2649609E+03               0.  -36.7371992E+03
               21                4   44.7960273E+03   40.0991758E+03               0.  -37.9064805E+03
               22                1   40.2173398E+03   44.9363594E+03               0.  -40.5794609E+03
               22                2   52.4502656E+03   62.6659766E+03               0.  -48.4058242E+03
               22                3   36.9880781E+03   54.1495391E+03               0.  -38.5842930E+03
               22                4   48.1588867E+03   71.3791484E+03               0.  -45.6224727E+03
               23                1   25.6326484E+03   60.4766953E+03               0.  -31.0291543E+03
               23                2   23.8975449E+03   63.8653906E+03               0.  -25.4188145E+03
               23                3   20.1652480E+03   46.2534961E+03               0.  -27.6613242E+03
               23                4   18.4677930E+03   48.2401328E+03               0.  -23.0353633E+03
               24                1   20.7740430E+03   43.7287148E+03               0.  -19.7755664E+03
               24                2   18.0419395E+03   36.6281016E+03               0.  -15.1689053E+03
               24                3   34.1030039E+03   46.6686914E+03               0.  -21.5344375E+03
               24                4   32.5951074E+03   40.3818672E+03               0.  -17.6640605E+03
               25                1   35.3050742E+03   20.3099863E+03               0.  -16.6821797E+03
               25                2   52.3468477E+03   25.6344551E+03               0.  -17.9571133E+03
               25                3   34.5761172E+03   21.1957520E+03               0.  -20.3023457E+03
               25                4   50.7857148E+03   26.5788457E+03               0.  -22.5731738E+03
               26                1   17.0752324E+03   53.9493906E+03               0.   22.0594121E+03
               26                2   20.2246055E+03   50.4889805E+03               0.   23.8941699E+03
               26                3   11.7769590E+03   43.0472148E+03               0.   18.6291855E+03
               26                4   13.7176875E+03   39.3240156E+03               0.   19.7407773E+03
               27                1   15.4168672E+03   34.3714883E+03               0.   20.9848691E+03
               27                2    21.584375E+03   41.3730273E+03               0.   24.5090410E+03
               27                3   18.4659492E+03   31.9545684E+03               0.     21.32325E+03
               27                4   24.6537012E+03   38.0794258E+03               0.   24.6507363E+03
               28                1   13.1017637E+03   19.6750332E+03               0.   18.7821289E+03
               28                2   7.42844873E+03   10.0271084E+03               0.   22.9041758E+03
               28                3   18.4007441E+03   17.5391719E+03               0.   17.8931426E+03
               28                4   14.6901230E+03   10.3286416E+03               0.   20.7717441E+03
               29                1   16.2068740E+03   11.8717168E+03               0.   19.7512910E+03
               29                2   15.3733320E+03   10.9591748E+03               0.   16.1530449E+03
               29                3   19.4587227E+03   22.8944062E+03               0.   19.2000879E+03
               29                4   18.8435566E+03   22.7105918E+03               0.   15.9683584E+03
               30                1   8.66945996E+03   28.5096621E+03               0.   11.5994102E+03
               30                2   15.0464434E+03   49.7557188E+03               0.   11.5530156E+03
               30                3   7.64080273E+03   27.4859668E+03               0.   16.2581035E+03
               30                4   13.4365869E+03   47.7640430E+03               0.   17.4601367E+03
               31                1   38.0794258E+03   24.6537012E+03               0.   24.6507363E+03
               31                2   41.3730273E+03    21.584375E+03               0.   24.5090410E+03
               31                3   31.9545684E+03   18.4659492E+03               0.     21.32325E+03
               31                4   34.3714883E+03   15.4168672E+03               0.   20.9848691E+03
               32                1   39.3240156E+03   13.7176875E+03               0.   19.7407773E+03
               32                2   50.4889805E+03   20.2246055E+03               0.   23.8941699E+03
               32                3   43.0472148E+03   11.7769590E+03               0.   18.6291855E+03
               32                4   53.9493906E+03   17.0752324E+03               0.   22.0594121E+03
               33                1   47.7640430E+03   13.4365869E+03               0.   17.4601367E+03
               33                2   49.7557188E+03   15.0464434E+03               0.   11.5530156E+03
               33                3   27.4859668E+03   7.64080273E+03               0.   16.2581035E+03
               33                4   28.5096621E+03   8.66945996E+03               0.   11.5994102E+03
               34                1   22.7105918E+03   18.8435566E+03               0.   15.9683584E+03
               34                2   10.9591748E+03   15.3733320E+03               0.   16.1530449E+03
               34                3   22.8944062E+03   19.4587227E+03               0.   19.2000879E+03
               34                4   11.8717168E+03   16.2068740E+03               0.   19.7512910E+03
               35                1   10.3286416E+03   14.6901230E+03               0.   20.7717441E+03
               35                2   10.0271084E+03   7.42844873E+03               0.   22.9041758E+03
               35                3   17.5391719E+03   18.4007441E+03               0.   17.8931426E+03
               35                4   19.6750332E+03   13.1017637E+03               0.   18.7821289E+03
               36                1   9.36820898E+03   5.64572607E+03               0.       794.196350
               36                2   7.98221143E+03      -374.606720               0.      -395.907135
               36                3   11.1897842E+03   9.52775781E+03               0.  -1.61587866E+03
               36                4   10.1759033E+03   4.99175098E+03               0.  -2.77098389E+03
               37                1   9.72261230E+03   7.49340430E+03               0.  -5.40159424E+03
               37                2   14.0228838E+03   18.2481543E+03               0.  -8.96250879E+03
               37                3   10.7689277E+03   13.5650527E+03               0.  -3.70922095E+03
               37                4   14.9249268E+03   24.7021719E+03               0.  -6.35900537E+03
               38                1   12.2564092E+03   33.2533125E+03               0.      -954.557068
               38                2   12.0683887E+03   35.8610938E+03               0.    4.1116875E+03
               38                3   6.59608936E+03   15.5821855E+03               0.   1.64245679E+03
               38                4   6.22838672E+03   17.1414316E+03               0.   5.61828076E+03
               39                1   17.4605410E+03   16.6334883E+03               0.   12.7922305E+03
               39                2   14.9985703E+03   8.78447363E+03               0.   13.5084424E+03
               39                3   18.3015332E+03   15.9877080E+03               0.   10.7369121E+03
               39                4   16.0524648E+03   8.51775293E+03               0.   11.2081709E+03
               40                1   17.5622344E+03   5.34230811E+03               0.   9.73658105E+03
               40                2   26.8813516E+03   8.03722803E+03               0.   10.4744160E+03
               40                3   16.6875820E+03   3.04416064E+03               0.   6.87828662E+03
               40                4   25.2469004E+03   4.84773926E+03               0.   6.76854736E+03


********************************************************************************
Field Output Report, written Thu Apr 24 12:37:37 2025

Source 1
---------

   ODB: C:/lnms/Vid/cross-hole/PopravljeniRP2.odb
   Step: loading
   Frame: Increment      9: Step Time =   0.9000

Loc 1 : Integration point values from source 1

Output sorted by column "Element Label".

Field Output reported at integration points for region: SPECIMEN-1.Region_1

          Element              Int            S.S11            S.S22            S.S33            S.S12
            Label               Pt           @Loc 1           @Loc 1           @Loc 1           @Loc 1
-------------------------------------------------------------------------------------------------------
                1                1   78.6929297E+03   53.4379180E+03               0.  -50.7492148E+03
                1                2   69.1728906E+03   57.4151836E+03               0.  -53.8767930E+03
                1                3   60.2504102E+03    41.670625E+03               0.  -43.2965391E+03
                1                4   50.1127227E+03   44.6385703E+03               0.  -45.5831133E+03
                2                1   44.8352422E+03   49.6919063E+03               0.  -42.8443906E+03
                2                2   50.0637539E+03   60.1178594E+03               0.    -46.60425E+03
                2                3   45.2074727E+03   55.0836758E+03               0.  -41.4584492E+03
                2                4   50.0050938E+03   65.7456719E+03               0.  -44.4236523E+03
                3                1   28.9442637E+03   55.4813945E+03               0.  -24.6973086E+03
                3                2   28.1266230E+03   57.2366016E+03               0.  -19.5462598E+03
                3                3   22.9914434E+03   37.3443945E+03               0.  -22.2848926E+03
                3                4   22.1765313E+03   38.1798281E+03               0.  -18.2074922E+03
                4                1   44.5171992E+03   35.4518477E+03               0.  -18.9436504E+03
                4                2   40.5149570E+03   19.8674512E+03               0.  -16.3129951E+03
                4                3   51.2103867E+03   37.1064766E+03               0.  -23.0924785E+03
                4                4   48.0843164E+03   22.8677676E+03               0.   -21.277625E+03
                5                1   52.9457539E+03   20.2794570E+03               0.  -24.8927852E+03
                5                2   70.2977266E+03   26.2255332E+03               0.  -27.3771035E+03
                5                3   50.4783789E+03   21.5187754E+03               0.  -30.1063203E+03
                5                4   66.2610078E+03   27.3177441E+03               0.  -33.6630156E+03
                6                1   27.0260195E+03   16.2618848E+03               0.  -7.08924805E+03
                6                2   19.9934941E+03   15.3460312E+03               0.  -9.90207715E+03
                6                3   14.8605029E+03   11.6577158E+03               0.  -4.14139014E+03
                6                4   8.20376563E+03   10.5617617E+03               0.  -5.96678564E+03
                7                1   5.47606934E+03   11.0713301E+03               0.  -3.06051587E+03
                7                2      -358.468262   8.67975586E+03               0.      -465.252686
                7                3   10.4220557E+03   12.1774971E+03               0.  -1.80893774E+03
                7                4   6.22010498E+03   10.1914531E+03               0.       819.210022
                8                1   5.41449609E+03      27.3925E+03               0.   7.45765723E+03
                8                2   8.82071973E+03   29.0635840E+03               0.   11.4510127E+03
                8                3   3.42644360E+03   18.0932207E+03               0.   7.54245605E+03
                8                4   5.88110742E+03   18.9712383E+03               0.   10.6343955E+03
                9                1   9.39710742E+03   17.3026387E+03               0.   12.2182061E+03
                9                2   9.71908398E+03   16.0481982E+03               0.   14.7665059E+03
                9                3   17.6881094E+03   19.8109238E+03               0.   11.6382217E+03
                9                4   18.4274922E+03   18.8046914E+03               0.   13.9027197E+03
               10                1   18.9328926E+03   6.51151270E+03               0.   6.03006006E+03
               10                2   39.3866680E+03   12.9374258E+03               0.   4.25937305E+03
               10                3   17.2115879E+03   7.04178516E+03               0.   1.67935474E+03
               10                4   36.5413672E+03   13.2947471E+03               0.  -1.23586169E+03
               11                1   21.5782402E+03   71.2919062E+03               0.   22.0180977E+03
               11                2   22.3450215E+03   64.2522461E+03               0.   26.8504941E+03
               11                3   14.7446025E+03   54.0048984E+03               0.   17.9461660E+03
               11                4   15.0849932E+03   46.3973906E+03               0.   21.9294141E+03
               12                1   17.1678437E+03   40.7137656E+03               0.   21.1799961E+03
               12                2   23.8201094E+03   41.6302773E+03               0.   23.5342871E+03
               12                3   22.8271387E+03   42.9147539E+03               0.   19.5829004E+03
               12                4   30.3443848E+03   44.4407539E+03               0.   21.1468867E+03
               13                1   39.5320430E+03    26.535125E+03               0.   7.57089160E+03
               13                2   42.1379883E+03   26.2505547E+03               0.   3.70270313E+03
               13                3   26.0336367E+03   21.9920234E+03               0.   5.13948438E+03
               13                4   27.6561289E+03   21.6107676E+03               0.   2.14460107E+03
               14                1   30.3076289E+03   46.0994961E+03               0.  -5.25329248E+03
               14                2   18.0714160E+03   41.6325078E+03               0.  -9.86690137E+03
               14                3   31.4448027E+03   54.8307617E+03               0.  -2.73145337E+03
               14                4   20.2070527E+03   51.5151992E+03               0.  -6.60014844E+03
               15                1   16.3671064E+03   60.3525078E+03               0.  -3.95945776E+03
               15                2   24.8563711E+03   89.6054531E+03               0.  -6.01839063E+03
               15                3   9.00686719E+03   57.9519258E+03               0.   5.43904736E+03
               15                4   15.0925986E+03   85.5813203E+03               0.   4.97407422E+03
               16                1   44.4407539E+03   30.3443848E+03               0.   21.1468867E+03
               16                2   41.6302773E+03   23.8201094E+03               0.   23.5342871E+03
               16                3   42.9147539E+03   22.8271387E+03               0.   19.5829004E+03
               16                4   40.7137656E+03   17.1678437E+03               0.   21.1799961E+03
               17                1   46.3973906E+03   15.0849932E+03               0.   21.9294141E+03
               17                2   64.2522461E+03   22.3450215E+03               0.   26.8504941E+03
               17                3   54.0048984E+03   14.7446025E+03               0.   17.9461660E+03
               17                4   71.2919062E+03   21.5782402E+03               0.   22.0180977E+03
               18                1   85.5813203E+03   15.0925986E+03               0.   4.97407422E+03
               18                2   89.6054531E+03   24.8563711E+03               0.  -6.01839063E+03
               18                3   57.9519258E+03   9.00686719E+03               0.   5.43904736E+03
               18                4   60.3525078E+03   16.3671064E+03               0.  -3.95945776E+03
               19                1   51.5151992E+03   20.2070527E+03               0.  -6.60014844E+03
               19                2   41.6325078E+03   18.0714160E+03               0.  -9.86690137E+03
               19                3   54.8307617E+03   31.4448027E+03               0.  -2.73145337E+03
               19                4   46.0994961E+03   30.3076289E+03               0.  -5.25329248E+03
               20                1   21.6107676E+03   27.6561289E+03               0.   2.14460107E+03
               20                2   26.2505547E+03   42.1379883E+03               0.   3.70270313E+03
               20                3   21.9920234E+03   26.0336367E+03               0.   5.13948438E+03
               20                4    26.535125E+03   39.5320430E+03               0.   7.57089160E+03
               21                1   65.7456719E+03   50.0050938E+03               0.  -44.4236523E+03
               21                2   60.1178594E+03   50.0637539E+03               0.    -46.60425E+03
               21                3   55.0836758E+03   45.2074727E+03               0.  -41.4584492E+03
               21                4   49.6919063E+03   44.8352422E+03               0.  -42.8443906E+03
               22                1   44.6385703E+03   50.1127227E+03               0.  -45.5831133E+03
               22                2   57.4151836E+03   69.1728906E+03               0.  -53.8767930E+03
               22                3    41.670625E+03   60.2504102E+03               0.  -43.2965391E+03
               22                4   53.4379180E+03   78.6929297E+03               0.  -50.7492148E+03
               23                1   27.3177441E+03   66.2610078E+03               0.  -33.6630156E+03
               23                2   26.2255332E+03   70.2977266E+03               0.  -27.3771035E+03
               23                3   21.5187754E+03   50.4783789E+03               0.  -30.1063203E+03
               23                4   20.2794570E+03   52.9457539E+03               0.  -24.8927852E+03
               24                1   22.8677676E+03   48.0843164E+03               0.   -21.277625E+03
               24                2   19.8674512E+03   40.5149570E+03               0.  -16.3129951E+03
               24                3   37.1064766E+03   51.2103867E+03               0.  -23.0924785E+03
               24                4   35.4518477E+03   44.5171992E+03               0.  -18.9436504E+03
               25                1   38.1798281E+03   22.1765313E+03               0.  -18.2074922E+03
               25                2   57.2366016E+03   28.1266230E+03               0.  -19.5462598E+03
               25                3   37.3443945E+03   22.9914434E+03               0.  -22.2848926E+03
               25                4   55.4813945E+03   28.9442637E+03               0.  -24.6973086E+03
               26                1   18.4755898E+03   60.9163516E+03               0.   24.3106914E+03
               26                2   21.8173437E+03   57.0762891E+03               0.   26.4814395E+03
               26                3   12.6444336E+03   48.5471797E+03               0.   20.5700508E+03
               26                4   14.7072314E+03   44.3567852E+03               0.   21.9305723E+03
               27                1   16.4814375E+03   38.9756836E+03               0.   23.3268145E+03
               27                2   23.1848457E+03   46.5631094E+03               0.   27.1621406E+03
               27                3   20.0171953E+03   36.5661328E+03               0.   23.6838262E+03
               27                4   26.7593437E+03   43.2504492E+03               0.   27.2980293E+03
               28                1   14.1833125E+03   22.4676445E+03               0.   20.7833027E+03
               28                2   7.74067285E+03   11.6452119E+03               0.   25.3545098E+03
               28                3   19.7763145E+03   19.8514727E+03               0.   19.7922188E+03
               28                4   15.5569170E+03   11.7380859E+03               0.   22.9757598E+03
               29                1   17.2214473E+03   13.3643584E+03               0.   21.7606113E+03
               29                2   16.4080684E+03   12.2559844E+03               0.   17.7125684E+03
               29                3   20.9047930E+03   25.7061816E+03               0.   21.0268945E+03
               29                4   20.3209785E+03   25.4355215E+03               0.   17.4076406E+03
               30                1   9.15799512E+03   31.8360508E+03               0.   12.6515781E+03
               30                2   16.2243203E+03   55.3549961E+03               0.   12.4853418E+03
               30                3        7.862E+03   30.7562871E+03               0.   17.8368926E+03
               30                4   14.2507803E+03   53.2450312E+03               0.   18.9879180E+03
               31                1   43.2504492E+03   26.7593437E+03               0.   27.2980293E+03
               31                2   46.5631094E+03   23.1848457E+03               0.   27.1621406E+03
               31                3   36.5661328E+03   20.0171953E+03               0.   23.6838262E+03
               31                4   38.9756836E+03   16.4814375E+03               0.   23.3268145E+03
               32                1   44.3567852E+03   14.7072314E+03               0.   21.9305723E+03
               32                2   57.0762891E+03   21.8173437E+03               0.   26.4814395E+03
               32                3   48.5471797E+03   12.6444336E+03               0.   20.5700508E+03
               32                4   60.9163516E+03   18.4755898E+03               0.   24.3106914E+03
               33                1   53.2450312E+03   14.2507803E+03               0.   18.9879180E+03
               33                2   55.3549961E+03   16.2243203E+03               0.   12.4853418E+03
               33                3   30.7562871E+03        7.862E+03               0.   17.8368926E+03
               33                4   31.8360508E+03   9.15799512E+03               0.   12.6515781E+03
               34                1   25.4355215E+03   20.3209785E+03               0.   17.4076406E+03
               34                2   12.2559844E+03   16.4080684E+03               0.   17.7125684E+03
               34                3   25.7061816E+03   20.9047930E+03               0.   21.0268945E+03
               34                4   13.3643584E+03   17.2214473E+03               0.   21.7606113E+03
               35                1   11.7380859E+03   15.5569170E+03               0.   22.9757598E+03
               35                2   11.6452119E+03   7.74067285E+03               0.   25.3545098E+03
               35                3   19.8514727E+03   19.7763145E+03               0.   19.7922188E+03
               35                4   22.4676445E+03   14.1833125E+03               0.   20.7833027E+03
               36                1   10.1914531E+03   6.22010498E+03               0.       819.210022
               36                2   8.67975586E+03      -358.468262               0.      -465.252686
               36                3   12.1774971E+03   10.4220557E+03               0.  -1.80893774E+03
               36                4   11.0713301E+03   5.47606934E+03               0.  -3.06051587E+03
               37                1   10.5617617E+03   8.20376563E+03               0.  -5.96678564E+03
               37                2   15.3460312E+03   19.9934941E+03               0.  -9.90207715E+03
               37                3   11.6577158E+03   14.8605029E+03               0.  -4.14139014E+03
               37                4   16.2618848E+03   27.0260195E+03               0.  -7.08924805E+03
               38                1   13.2947471E+03   36.5413672E+03               0.  -1.23586169E+03
               38                2   12.9374258E+03   39.3866680E+03               0.   4.25937305E+03
               38                3   7.04178516E+03   17.2115879E+03               0.   1.67935474E+03
               38                4   6.51151270E+03   18.9328926E+03               0.   6.03006006E+03
               39                1   18.8046914E+03   18.4274922E+03               0.   13.9027197E+03
               39                2   16.0481982E+03   9.71908398E+03               0.   14.7665059E+03
               39                3   19.8109238E+03   17.6881094E+03               0.   11.6382217E+03
               39                4   17.3026387E+03   9.39710742E+03               0.   12.2182061E+03
               40                1   18.9712383E+03   5.88110742E+03               0.   10.6343955E+03
               40                2   29.0635840E+03   8.82071973E+03               0.   11.4510127E+03
               40                3   18.0932207E+03   3.42644360E+03               0.   7.54245605E+03
               40                4      27.3925E+03   5.41449609E+03               0.   7.45765723E+03


********************************************************************************
Field Output Report, written Thu Apr 24 12:37:41 2025

Source 1
---------

   ODB: C:/lnms/Vid/cross-hole/PopravljeniRP2.odb
   Step: loading
   Frame: Increment     10: Step Time =    1.000

Loc 1 : Integration point values from source 1

Output sorted by column "Element Label".

Field Output reported at integration points for region: SPECIMEN-1.Region_1

          Element              Int            S.S11            S.S22            S.S33            S.S12
            Label               Pt           @Loc 1           @Loc 1           @Loc 1           @Loc 1
-------------------------------------------------------------------------------------------------------
                1                1   85.8317109E+03   58.6568242E+03               0.  -55.7880820E+03
                1                2       75.527E+03   62.1995664E+03               0.  -59.2733164E+03
                1                3   66.2699453E+03   46.3907109E+03               0.  -47.9730078E+03
                1                4   55.2248086E+03   48.9934180E+03               0.  -50.5691953E+03
                2                1   49.5302227E+03   54.5041836E+03               0.  -47.8015508E+03
                2                2   55.2893555E+03   66.2295234E+03               0.  -51.9846484E+03
                2                3   50.1507578E+03   60.6460391E+03               0.  -46.1883438E+03
                2                4   55.5033242E+03   72.5994531E+03               0.  -49.4836836E+03
                3                1   31.0710566E+03   59.8017461E+03               0.  -26.6218340E+03
                3                2   30.4479004E+03   61.7479336E+03               0.  -20.9523105E+03
                3                3   24.5827129E+03   39.7916484E+03               0.  -24.1110625E+03
                3                4   23.8931133E+03    40.736125E+03               0.  -19.5829746E+03
                4                1   48.4641484E+03   38.0458672E+03               0.  -20.0437109E+03
                4                2   44.2463828E+03   21.5754570E+03               0.  -17.3205605E+03
                4                3   55.4645898E+03   39.8211602E+03               0.  -24.4332383E+03
                4                4   52.1725469E+03   24.8029668E+03               0.  -22.5945703E+03
                5                1   57.3236367E+03   21.9268535E+03               0.  -26.5426270E+03
                5                2   76.2918906E+03   28.3333945E+03               0.  -29.0894805E+03
                5                3   54.3686914E+03   22.6175059E+03               0.  -32.3242676E+03
                5                4   71.6179453E+03   28.6776973E+03               0.  -36.0212539E+03
                6                1   29.1986387E+03   17.5034824E+03               0.  -7.79548682E+03
                6                2   21.6301680E+03   16.5853906E+03               0.  -10.7979336E+03
                6                3   16.0755439E+03   12.4707764E+03               0.  -4.56145508E+03
                6                4   8.87002148E+03   11.3360361E+03               0.  -6.50670166E+03
                7                1   5.93215869E+03   11.8996318E+03               0.  -3.33803296E+03
                7                2      -336.118042   9.32301563E+03               0.      -536.892761
                7                3   11.2593437E+03   13.0912061E+03               0.  -1.99796545E+03
                7                4   6.76360303E+03   10.9511719E+03               0.       833.213135
                8                1   5.96115088E+03   29.3608477E+03               0.   8.10500781E+03
                8                2   9.55587402E+03   31.0512793E+03               0.   12.3596318E+03
                8                3   3.79775659E+03   19.3778086E+03               0.   8.16312549E+03
                8                4   6.38839111E+03   20.2481777E+03               0.   11.4692734E+03
                9                1   10.2306094E+03   18.4277559E+03               0.   13.1539297E+03
                9                2   10.6091689E+03   16.9654609E+03               0.   15.9392383E+03
                9                3   19.3104961E+03   21.1884609E+03               0.   12.4600703E+03
                9                4   20.1426797E+03   20.0110957E+03               0.   14.9221582E+03
               10                1   20.6391133E+03   6.72617676E+03               0.   6.39052002E+03
               10                2   42.7089453E+03   13.7088477E+03               0.   4.35161865E+03
               10                3   18.7643145E+03   7.43269775E+03               0.   1.69041418E+03
               10                4   39.6431797E+03   14.2513154E+03               0.  -1.53559033E+03
               11                1   22.8521523E+03   78.6481328E+03               0.    24.034125E+03
               11                2   23.6755566E+03   71.3119922E+03               0.   29.2731230E+03
               11                3   15.4991416E+03   59.8952422E+03               0.    19.705625E+03
               11                4   15.8861279E+03    51.839875E+03               0.   24.0748418E+03
               12                1   18.2302012E+03   45.5345937E+03               0.   23.4010547E+03
               12                2   25.2333418E+03   46.5373516E+03               0.   25.9936934E+03
               12                3   24.3490918E+03   47.8647070E+03               0.   21.7391934E+03
               12                4   32.2934082E+03   49.5083125E+03               0.   23.4901445E+03
               13                1   42.0408125E+03   29.1757012E+03               0.   8.77474805E+03
               13                2   44.9477812E+03   28.7814395E+03               0.   4.61058105E+03
               13                3   27.3903516E+03   24.1784297E+03               0.   6.04071533E+03
               13                4   29.2262539E+03   23.6921406E+03               0.   2.79537451E+03
               14                1   32.3789121E+03   50.5180391E+03               0.  -5.30374414E+03
               14                2      19.6365E+03   45.7210117E+03               0.  -10.4453682E+03
               14                3   33.6854687E+03   60.2125859E+03               0.  -2.78334692E+03
               14                4   22.0198691E+03   56.7065117E+03               0.  -7.09698682E+03
               15                1   17.8690605E+03   66.3500391E+03               0.  -4.44977588E+03
               15                2   26.9864707E+03   97.6758828E+03               0.  -6.99556787E+03
               15                3   9.24815039E+03   63.8080312E+03               0.   5.60832568E+03
               15                4   15.6916660E+03   93.4889141E+03               0.   4.59989355E+03
               16                1   49.5083125E+03   32.2934082E+03               0.   23.4901445E+03
               16                2   46.5373516E+03   25.2333418E+03               0.   25.9936934E+03
               16                3   47.8647070E+03   24.3490918E+03               0.   21.7391934E+03
               16                4   45.5345937E+03   18.2302012E+03               0.   23.4010547E+03
               17                1    51.839875E+03   15.8861279E+03               0.   24.0748418E+03
               17                2   71.3119922E+03   23.6755566E+03               0.   29.2731230E+03
               17                3   59.8952422E+03   15.4991416E+03               0.    19.705625E+03
               17                4   78.6481328E+03   22.8521523E+03               0.    24.034125E+03
               18                1   93.4889141E+03   15.6916660E+03               0.   4.59989355E+03
               18                2   97.6758828E+03   26.9864707E+03               0.  -6.99556787E+03
               18                3   63.8080312E+03   9.24815039E+03               0.   5.60832568E+03
               18                4   66.3500391E+03   17.8690605E+03               0.  -4.44977588E+03
               19                1   56.7065117E+03   22.0198691E+03               0.  -7.09698682E+03
               19                2   45.7210117E+03      19.6365E+03               0.  -10.4453682E+03
               19                3   60.2125859E+03   33.6854687E+03               0.  -2.78334692E+03
               19                4   50.5180391E+03   32.3789121E+03               0.  -5.30374414E+03
               20                1   23.6921406E+03   29.2262539E+03               0.   2.79537451E+03
               20                2   28.7814395E+03   44.9477812E+03               0.   4.61058105E+03
               20                3   24.1784297E+03   27.3903516E+03               0.   6.04071533E+03
               20                4   29.1757012E+03   42.0408125E+03               0.   8.77474805E+03
               21                1   72.5994531E+03   55.5033242E+03               0.  -49.4836836E+03
               21                2   66.2295234E+03   55.2893555E+03               0.  -51.9846484E+03
               21                3   60.6460391E+03   50.1507578E+03               0.  -46.1883438E+03
               21                4   54.5041836E+03   49.5302227E+03               0.  -47.8015508E+03
               22                1   48.9934180E+03   55.2248086E+03               0.  -50.5691953E+03
               22                2   62.1995664E+03       75.527E+03               0.  -59.2733164E+03
               22                3   46.3907109E+03   66.2699453E+03               0.  -47.9730078E+03
               22                4   58.6568242E+03   85.8317109E+03               0.  -55.7880820E+03
               23                1   28.6776973E+03   71.6179453E+03               0.  -36.0212539E+03
               23                2   28.3333945E+03   76.2918906E+03               0.  -29.0894805E+03
               23                3   22.6175059E+03   54.3686914E+03               0.  -32.3242676E+03
               23                4   21.9268535E+03   57.3236367E+03               0.  -26.5426270E+03
               24                1   24.8029668E+03   52.1725469E+03               0.  -22.5945703E+03
               24                2   21.5754570E+03   44.2463828E+03               0.  -17.3205605E+03
               24                3   39.8211602E+03   55.4645898E+03               0.  -24.4332383E+03
               24                4   38.0458672E+03   48.4641484E+03               0.  -20.0437109E+03
               25                1    40.736125E+03   23.8931133E+03               0.  -19.5829746E+03
               25                2   61.7479336E+03   30.4479004E+03               0.  -20.9523105E+03
               25                3   39.7916484E+03   24.5827129E+03               0.  -24.1110625E+03
               25                4   59.8017461E+03   31.0710566E+03               0.  -26.6218340E+03
               26                1   19.7755488E+03   67.9308359E+03               0.   26.4702012E+03
               26                2   23.2680371E+03   63.7300391E+03               0.   28.9858809E+03
               26                3   13.4275869E+03   54.0812070E+03               0.   22.4411133E+03
               26                4   15.5853320E+03   49.4293359E+03               0.   24.0656563E+03
               27                1   17.4179453E+03   43.6309063E+03               0.   25.6036426E+03
               27                2   24.6009043E+03   51.7305430E+03               0.   29.7223770E+03
               27                3   21.4473789E+03   41.2794609E+03               0.   25.9700449E+03
               27                4   28.6900430E+03   48.4614883E+03               0.      29.8425E+03
               28                1   15.1523740E+03   25.2669609E+03               0.   22.6922871E+03
               28                2   7.94379395E+03   13.2992188E+03               0.   27.7004570E+03
               28                3   20.9891211E+03   22.1469746E+03               0.   21.6018574E+03
               28                4   16.2624268E+03   13.1457578E+03               0.   25.0819727E+03
               29                1   18.0732988E+03   14.8348018E+03               0.   23.6658926E+03
               29                2   17.3018301E+03   13.5189453E+03               0.   19.1761367E+03
               29                3   22.1911387E+03   28.4637773E+03               0.       22.734E+03
               29                4   21.6558613E+03   28.0976406E+03               0.   18.7376680E+03
               30                1   9.55996582E+03   35.0826172E+03               0.   13.6247764E+03
               30                2   17.2966133E+03   60.7988711E+03               0.   13.3196152E+03
               30                3   7.96380518E+03    33.955375E+03               0.   19.3228184E+03
               30                4   14.9242656E+03   58.5865469E+03               0.   20.3873770E+03
               31                1   48.4614883E+03   28.6900430E+03               0.      29.8425E+03
               31                2   51.7305430E+03   24.6009043E+03               0.   29.7223770E+03
               31                3   41.2794609E+03   21.4473789E+03               0.   25.9700449E+03
               31                4   43.6309063E+03   17.4179453E+03               0.   25.6036426E+03
               32                1   49.4293359E+03   15.5853320E+03               0.   24.0656563E+03
               32                2   63.7300391E+03   23.2680371E+03               0.   28.9858809E+03
               32                3   54.0812070E+03   13.4275869E+03               0.   22.4411133E+03
               32                4   67.9308359E+03   19.7755488E+03               0.   26.4702012E+03
               33                1   58.5865469E+03   14.9242656E+03               0.   20.3873770E+03
               33                2   60.7988711E+03   17.2966133E+03               0.   13.3196152E+03
               33                3    33.955375E+03   7.96380518E+03               0.   19.3228184E+03
               33                4   35.0826172E+03   9.55996582E+03               0.   13.6247764E+03
               34                1   28.0976406E+03   21.6558613E+03               0.   18.7376680E+03
               34                2   13.5189453E+03   17.3018301E+03               0.   19.1761367E+03
               34                3   28.4637773E+03   22.1911387E+03               0.       22.734E+03
               34                4   14.8348018E+03   18.0732988E+03               0.   23.6658926E+03
               35                1   13.1457578E+03   16.2624268E+03               0.   25.0819727E+03
               35                2   13.2992188E+03   7.94379395E+03               0.   27.7004570E+03
               35                3   22.1469746E+03   20.9891211E+03               0.   21.6018574E+03
               35                4   25.2669609E+03   15.1523740E+03               0.   22.6922871E+03
               36                1   10.9511719E+03   6.76360303E+03               0.       833.213135
               36                2   9.32301563E+03      -336.118042               0.      -536.892761
               36                3   13.0912061E+03   11.2593437E+03               0.  -1.99796545E+03
               36                4   11.8996318E+03   5.93215869E+03               0.  -3.33803296E+03
               37                1   11.3360361E+03   8.87002148E+03               0.  -6.50670166E+03
               37                2   16.5853906E+03   21.6301680E+03               0.  -10.7979336E+03
               37                3   12.4707764E+03   16.0755439E+03               0.  -4.56145508E+03
               37                4   17.5034824E+03   29.1986387E+03               0.  -7.79548682E+03
               38                1   14.2513154E+03   39.6431797E+03               0.  -1.53559033E+03
               38                2   13.7088477E+03   42.7089453E+03               0.   4.35161865E+03
               38                3   7.43269775E+03   18.7643145E+03               0.   1.69041418E+03
               38                4   6.72617676E+03   20.6391133E+03               0.   6.39052002E+03
               39                1   20.0110957E+03   20.1426797E+03               0.   14.9221582E+03
               39                2   16.9654609E+03   10.6091689E+03               0.   15.9392383E+03
               39                3   21.1884609E+03   19.3104961E+03               0.   12.4600703E+03
               39                4   18.4277559E+03   10.2306094E+03               0.   13.1539297E+03
               40                1   20.2481777E+03   6.38839111E+03               0.   11.4692734E+03
               40                2   31.0512793E+03   9.55587402E+03               0.   12.3596318E+03
               40                3   19.3778086E+03   3.79775659E+03               0.   8.16312549E+03
               40                4   29.3608477E+03   5.96115088E+03               0.   8.10500781E+03