********************************************************************************
Probe Values Report, written on Thu Apr 24 16:20:55 2025

Source
-------

   ODB: C:/lnms/Vid/CrossHoleSym/CrossHoleSymU.odb
   Step: loading
   Frame: Increment     10: Step Time =    1.000
   Variable: S, Mises (Avg: 75)

Probe values reported at nodes

  Part Instance     Node ID                   Orig. Coords                                     Def. Coords                 
                                    X               Y               Z               X               Y               Z      
-------------------------------------------------------------------------------------------------------------------------
    ASSEMBLY           1             30.              0.              0.            35.5    -74.0791E-36              0.
    ASSEMBLY           2              0.             30.              0.     74.0791E-36            35.5              0.
    ASSEMBLY           3            -30.    -1.77636E-15              0.            -30.    -1.77636E-15              0.
    ASSEMBLY           4              0.            -30.              0.              0.            -30.              0.
  SPECIMEN-1           1         16.1612         16.1612              0.         17.8685         17.8685              0.
  SPECIMEN-1           2         7.07107         7.07107              0.         10.1919         10.1919              0.
  SPECIMEN-1           3             10.              0.              0.         14.9788     69.0772E-18              0.
  SPECIMEN-1           4             25.              0.              0.            30.5      128.63E-33              0.
  SPECIMEN-1           5             25.            12.5              0.            30.5            12.5              0.
  SPECIMEN-1           6        -7.07107        -7.07107              0.        -10.1919        -10.1919              0.
  SPECIMEN-1           7        -16.1612        -16.1612              0.        -17.8685        -17.8685              0.
  SPECIMEN-1           8           -12.5            -25.              0.           -12.5           -30.5              0.
  SPECIMEN-1           9              0.            -25.              0.    -458.981E-33           -30.5              0.
  SPECIMEN-1          10              0.            -10.              0.     122.638E-18        -14.9788              0.
  SPECIMEN-1          11        -16.1612         16.1612              0.        -17.8685         17.8685              0.
  SPECIMEN-1          12        -7.07107         7.07107              0.        -10.1919         10.1919              0.
  SPECIMEN-1          13              0.             10.              0.    -127.955E-18         14.9788              0.
  SPECIMEN-1          14              0.             25.              0.     -128.63E-33            30.5              0.
  SPECIMEN-1          15           -12.5             25.              0.           -12.5            30.5              0.
  SPECIMEN-1          16         7.07107        -7.07107              0.         10.1919        -10.1919              0.
  SPECIMEN-1          17         16.1612        -16.1612              0.         17.8685        -17.8685              0.
  SPECIMEN-1          18             25.           -12.5              0.            30.5           -12.5              0.
  SPECIMEN-1          19            12.5             25.              0.            12.5            30.5              0.
  SPECIMEN-1          20            -25.            12.5              0.           -30.5            12.5              0.
  SPECIMEN-1          21            -25.              0.              0.           -30.5     394.019E-33              0.
  SPECIMEN-1          22            -10.              0.              0.        -14.9788     96.8464E-18              0.
  SPECIMEN-1          23            12.5            -25.              0.            12.5           -30.5              0.
  SPECIMEN-1          24            -25.           -12.5              0.           -30.5           -12.5              0.
  SPECIMEN-1          25         20.2165         13.4515              0.         23.9771         13.6019              0.
  SPECIMEN-1          26         11.6161         11.6161              0.         14.0268         14.0268              0.
  SPECIMEN-1          27          9.2388         3.82683              0.         13.8085         5.25019              0.
  SPECIMEN-1          28            17.5              0.              0.         22.4265    -103.745E-18              0.
  SPECIMEN-1          29             25.            6.25              0.            30.5            6.25              0.
  SPECIMEN-1          30        -3.82683         -9.2388              0.        -5.25019        -13.8085              0.
  SPECIMEN-1          31        -11.6161        -11.6161              0.        -14.0268        -14.0268              0.
  SPECIMEN-1          32        -13.4515        -20.2165              0.        -13.6019        -23.9771              0.
  SPECIMEN-1          33           -6.25            -25.              0.           -6.25           -30.5              0.
  SPECIMEN-1          34              0.           -17.5              0.    -123.341E-18        -22.4265              0.
  SPECIMEN-1          35        -13.4515         20.2165              0.        -13.6019         23.9771              0.
  SPECIMEN-1          36        -11.6161         11.6161              0.        -14.0268         14.0268              0.
  SPECIMEN-1          37        -3.82683          9.2388              0.        -5.25019         13.8085              0.
  SPECIMEN-1          38              0.            17.5              0.     34.1009E-18         22.4265              0.
  SPECIMEN-1          39           -6.25             25.              0.           -6.25            30.5              0.
  SPECIMEN-1          40          9.2388        -3.82683              0.         13.8085        -5.25019              0.
  SPECIMEN-1          41         11.6161        -11.6161              0.         14.0268        -14.0268              0.
  SPECIMEN-1          42         20.2165        -13.4515              0.         23.9771        -13.6019              0.
  SPECIMEN-1          43             25.           -6.25              0.            30.5           -6.25              0.
  SPECIMEN-1          44         3.82683          9.2388              0.         5.25019         13.8085              0.
  SPECIMEN-1          45         13.4515         20.2165              0.         13.6019         23.9771              0.
  SPECIMEN-1          46            6.25             25.              0.            6.25            30.5              0.
  SPECIMEN-1          47         -9.2388         3.82683              0.        -13.8085         5.25019              0.
  SPECIMEN-1          48        -20.2165         13.4515              0.        -23.9771         13.6019              0.
  SPECIMEN-1          49            -25.            6.25              0.           -30.5            6.25              0.
  SPECIMEN-1          50           -17.5              0.              0.        -22.4265     255.289E-18              0.
  SPECIMEN-1          51         13.4515        -20.2165              0.         13.6019        -23.9771              0.
  SPECIMEN-1          52         3.82683         -9.2388              0.         5.25019        -13.8085              0.
  SPECIMEN-1          53            6.25            -25.              0.            6.25           -30.5              0.
  SPECIMEN-1          54        -20.2165        -13.4515              0.        -23.9771        -13.6019              0.
  SPECIMEN-1          55         -9.2388        -3.82683              0.        -13.8085        -5.25019              0.
  SPECIMEN-1          56            -25.           -6.25              0.           -30.5           -6.25              0.
  SPECIMEN-1          57         16.7143         7.02889              0.          21.053         7.65671              0.
  SPECIMEN-1          58        -7.02889        -16.7143              0.        -7.65671         -21.053              0.
  SPECIMEN-1          59        -7.02889         16.7143              0.        -7.65671          21.053              0.
  SPECIMEN-1          60         16.7143        -7.02889              0.          21.053        -7.65671              0.
  SPECIMEN-1          61         7.02889         16.7143              0.         7.65671          21.053              0.
  SPECIMEN-1          62        -16.7143         7.02889              0.         -21.053         7.65671              0.
  SPECIMEN-1          63         7.02889        -16.7143              0.         7.65671         -21.053              0.
  SPECIMEN-1          64        -16.7143        -7.02889              0.         -21.053        -7.65671              0.


  Part Instance     Node ID  Attached elements        S, Mises
---------------------------------------------------------------
    ASSEMBLY           1          Elem-1         NoValue
    ASSEMBLY           2          Elem-1         NoValue
    ASSEMBLY           3          Elem-1         NoValue
    ASSEMBLY           4          Elem-1         NoValue
  SPECIMEN-1           1               1         525.737
  SPECIMEN-1           1              22         525.737
  SPECIMEN-1           1            1001         525.737
  SPECIMEN-1           1            1022         525.737
  SPECIMEN-1           2               2         547.127
  SPECIMEN-1           2              21         547.127
  SPECIMEN-1           2            1002         547.127
  SPECIMEN-1           2            1021         547.127
  SPECIMEN-1           3               3         437.828
  SPECIMEN-1           3              20         437.828
  SPECIMEN-1           3            1003         437.828
  SPECIMEN-1           3            1020         437.828
  SPECIMEN-1           4               4         189.374
  SPECIMEN-1           4              19         189.374
  SPECIMEN-1           4            1004         189.374
  SPECIMEN-1           4            1019         189.374
  SPECIMEN-1           5               5         439.796
  SPECIMEN-1           5            1005         439.796
  SPECIMEN-1           6               6         547.127
  SPECIMEN-1           6              37         547.127
  SPECIMEN-1           6            1006         547.127
  SPECIMEN-1           6            1037         547.127
  SPECIMEN-1           7               7         525.737
  SPECIMEN-1           7              36         525.737
  SPECIMEN-1           7            1007         525.737
  SPECIMEN-1           7            1036         525.737
  SPECIMEN-1           8               8         439.796
  SPECIMEN-1           8            1008         439.796
  SPECIMEN-1           9               9         189.374
  SPECIMEN-1           9              34         189.374
  SPECIMEN-1           9            1009         189.374
  SPECIMEN-1           9            1034         189.374
  SPECIMEN-1          10              10         437.828
  SPECIMEN-1          10              33         437.828
  SPECIMEN-1          10            1010         437.828
  SPECIMEN-1          10            1033         437.828
  SPECIMEN-1          11              11         525.737
  SPECIMEN-1          11              27         525.737
  SPECIMEN-1          11            1011         525.737
  SPECIMEN-1          11            1027         525.737
  SPECIMEN-1          12              12         547.127
  SPECIMEN-1          12              26         547.127
  SPECIMEN-1          12            1012         547.127
  SPECIMEN-1          12            1026         547.127
  SPECIMEN-1          13              13         437.828
  SPECIMEN-1          13              25         437.828
  SPECIMEN-1          13            1013         437.828
  SPECIMEN-1          13            1025         437.828
  SPECIMEN-1          14              14         189.374
  SPECIMEN-1          14              24         189.374
  SPECIMEN-1          14            1014         189.374
  SPECIMEN-1          14            1024         189.374
  SPECIMEN-1          15              15         439.796
  SPECIMEN-1          15            1015         439.796
  SPECIMEN-1          16              16         547.127
  SPECIMEN-1          16              32         547.127
  SPECIMEN-1          16            1016         547.127
  SPECIMEN-1          16            1032         547.127
  SPECIMEN-1          17              17         525.737
  SPECIMEN-1          17              31         525.737
  SPECIMEN-1          17            1017         525.737
  SPECIMEN-1          17            1031         525.737
  SPECIMEN-1          18              18         439.796
  SPECIMEN-1          18            1018         439.796
  SPECIMEN-1          19              23         439.796
  SPECIMEN-1          19            1023         439.796
  SPECIMEN-1          20              28         439.796
  SPECIMEN-1          20            1028         439.796
  SPECIMEN-1          21              29         189.374
  SPECIMEN-1          21              39         189.374
  SPECIMEN-1          21            1029         189.374
  SPECIMEN-1          21            1039         189.374
  SPECIMEN-1          22              30         437.828
  SPECIMEN-1          22              38         437.828
  SPECIMEN-1          22            1030         437.828
  SPECIMEN-1          22            1038         437.828
  SPECIMEN-1          23              35         439.796
  SPECIMEN-1          23            1035         439.796
  SPECIMEN-1          24              40         439.796
  SPECIMEN-1          24            1040         439.796
  SPECIMEN-1          25               1         472.744
  SPECIMEN-1          25               5         472.744
  SPECIMEN-1          25            1001         472.744
  SPECIMEN-1          25            1005         472.744
  SPECIMEN-1          26               1         417.188
  SPECIMEN-1          26               2         417.188
  SPECIMEN-1          26              21         417.188
  SPECIMEN-1          26              22         417.188
  SPECIMEN-1          26            1001         417.188
  SPECIMEN-1          26            1002         417.188
  SPECIMEN-1          26            1021         417.188
  SPECIMEN-1          26            1022         417.188
  SPECIMEN-1          27               2         501.228
  SPECIMEN-1          27               3         501.228
  SPECIMEN-1          27            1002         501.228
  SPECIMEN-1          27            1003         501.228
  SPECIMEN-1          28               3         231.954
  SPECIMEN-1          28               4         231.954
  SPECIMEN-1          28              19         231.954
  SPECIMEN-1          28              20         231.954
  SPECIMEN-1          28            1003         231.954
  SPECIMEN-1          28            1004         231.954
  SPECIMEN-1          28            1019         231.954
  SPECIMEN-1          28            1020         231.954
  SPECIMEN-1          29               4         254.797
  SPECIMEN-1          29               5         254.797
  SPECIMEN-1          29            1004         254.797
  SPECIMEN-1          29            1005         254.797
  SPECIMEN-1          30               6         501.228
  SPECIMEN-1          30              10         501.228
  SPECIMEN-1          30            1006         501.228
  SPECIMEN-1          30            1010         501.228
  SPECIMEN-1          31               6         417.188
  SPECIMEN-1          31               7         417.188
  SPECIMEN-1          31              36         417.188
  SPECIMEN-1          31              37         417.188
  SPECIMEN-1          31            1006         417.188
  SPECIMEN-1          31            1007         417.188
  SPECIMEN-1          31            1036         417.188
  SPECIMEN-1          31            1037         417.188
  SPECIMEN-1          32               7         472.744
  SPECIMEN-1          32               8         472.744
  SPECIMEN-1          32            1007         472.744
  SPECIMEN-1          32            1008         472.744
  SPECIMEN-1          33               8         254.797
  SPECIMEN-1          33               9         254.797
  SPECIMEN-1          33            1008         254.797
  SPECIMEN-1          33            1009         254.797
  SPECIMEN-1          34               9         231.954
  SPECIMEN-1          34              10         231.954
  SPECIMEN-1          34              33         231.954
  SPECIMEN-1          34              34         231.954
  SPECIMEN-1          34            1009         231.954
  SPECIMEN-1          34            1010         231.954
  SPECIMEN-1          34            1033         231.954
  SPECIMEN-1          34            1034         231.954
  SPECIMEN-1          35              11         472.744
  SPECIMEN-1          35              15         472.744
  SPECIMEN-1          35            1011         472.744
  SPECIMEN-1          35            1015         472.744
  SPECIMEN-1          36              11         417.188
  SPECIMEN-1          36              12         417.188
  SPECIMEN-1          36              26         417.188
  SPECIMEN-1          36              27         417.188
  SPECIMEN-1          36            1011         417.188
  SPECIMEN-1          36            1012         417.188
  SPECIMEN-1          36            1026         417.188
  SPECIMEN-1          36            1027         417.188
  SPECIMEN-1          37              12         501.228
  SPECIMEN-1          37              13         501.228
  SPECIMEN-1          37            1012         501.228
  SPECIMEN-1          37            1013         501.228
  SPECIMEN-1          38              13         231.954
  SPECIMEN-1          38              14         231.954
  SPECIMEN-1          38              24         231.954
  SPECIMEN-1          38              25         231.954
  SPECIMEN-1          38            1013         231.954
  SPECIMEN-1          38            1014         231.954
  SPECIMEN-1          38            1024         231.954
  SPECIMEN-1          38            1025         231.954
  SPECIMEN-1          39              14         254.797
  SPECIMEN-1          39              15         254.797
  SPECIMEN-1          39            1014         254.797
  SPECIMEN-1          39            1015         254.797
  SPECIMEN-1          40              16         501.228
  SPECIMEN-1          40              20         501.228
  SPECIMEN-1          40            1016         501.228
  SPECIMEN-1          40            1020         501.228
  SPECIMEN-1          41              16         417.188
  SPECIMEN-1          41              17         417.188
  SPECIMEN-1          41              31         417.188
  SPECIMEN-1          41              32         417.188
  SPECIMEN-1          41            1016         417.188
  SPECIMEN-1          41            1017         417.188
  SPECIMEN-1          41            1031         417.188
  SPECIMEN-1          41            1032         417.188
  SPECIMEN-1          42              17         472.744
  SPECIMEN-1          42              18         472.744
  SPECIMEN-1          42            1017         472.744
  SPECIMEN-1          42            1018         472.744
  SPECIMEN-1          43              18         254.797
  SPECIMEN-1          43              19         254.797
  SPECIMEN-1          43            1018         254.797
  SPECIMEN-1          43            1019         254.797
  SPECIMEN-1          44              21         501.228
  SPECIMEN-1          44              25         501.228
  SPECIMEN-1          44            1021         501.228
  SPECIMEN-1          44            1025         501.228
  SPECIMEN-1          45              22         472.744
  SPECIMEN-1          45              23         472.744
  SPECIMEN-1          45            1022         472.744
  SPECIMEN-1          45            1023         472.744
  SPECIMEN-1          46              23         254.797
  SPECIMEN-1          46              24         254.797
  SPECIMEN-1          46            1023         254.797
  SPECIMEN-1          46            1024         254.797
  SPECIMEN-1          47              26         501.228
  SPECIMEN-1          47              30         501.228
  SPECIMEN-1          47            1026         501.228
  SPECIMEN-1          47            1030         501.228
  SPECIMEN-1          48              27         472.744
  SPECIMEN-1          48              28         472.744
  SPECIMEN-1          48            1027         472.744
  SPECIMEN-1          48            1028         472.744
  SPECIMEN-1          49              28         254.797
  SPECIMEN-1          49              29         254.797
  SPECIMEN-1          49            1028         254.797
  SPECIMEN-1          49            1029         254.797
  SPECIMEN-1          50              29         231.954
  SPECIMEN-1          50              30         231.954
  SPECIMEN-1          50              38         231.954
  SPECIMEN-1          50              39         231.954
  SPECIMEN-1          50            1029         231.954
  SPECIMEN-1          50            1030         231.954
  SPECIMEN-1          50            1038         231.954
  SPECIMEN-1          50            1039         231.954
  SPECIMEN-1          51              31         472.744
  SPECIMEN-1          51              35         472.744
  SPECIMEN-1          51            1031         472.744
  SPECIMEN-1          51            1035         472.744
  SPECIMEN-1          52              32         501.228
  SPECIMEN-1          52              33         501.228
  SPECIMEN-1          52            1032         501.228
  SPECIMEN-1          52            1033         501.228
  SPECIMEN-1          53              34         254.797
  SPECIMEN-1          53              35         254.797
  SPECIMEN-1          53            1034         254.797
  SPECIMEN-1          53            1035         254.797
  SPECIMEN-1          54              36         472.744
  SPECIMEN-1          54              40         472.744
  SPECIMEN-1          54            1036         472.744
  SPECIMEN-1          54            1040         472.744
  SPECIMEN-1          55              37         501.228
  SPECIMEN-1          55              38         501.228
  SPECIMEN-1          55            1037         501.228
  SPECIMEN-1          55            1038         501.228
  SPECIMEN-1          56              39         254.797
  SPECIMEN-1          56              40         254.797
  SPECIMEN-1          56            1039         254.797
  SPECIMEN-1          56            1040         254.797
  SPECIMEN-1          57               1         338.229
  SPECIMEN-1          57               2         338.229
  SPECIMEN-1          57               3         338.229
  SPECIMEN-1          57               4         338.229
  SPECIMEN-1          57               5         338.229
  SPECIMEN-1          57            1001         338.229
  SPECIMEN-1          57            1002         338.229
  SPECIMEN-1          57            1003         338.229
  SPECIMEN-1          57            1004         338.229
  SPECIMEN-1          57            1005         338.229
  SPECIMEN-1          58               6         338.229
  SPECIMEN-1          58               7         338.229
  SPECIMEN-1          58               8         338.229
  SPECIMEN-1          58               9         338.229
  SPECIMEN-1          58              10         338.229
  SPECIMEN-1          58            1006         338.229
  SPECIMEN-1          58            1007         338.229
  SPECIMEN-1          58            1008         338.229
  SPECIMEN-1          58            1009         338.229
  SPECIMEN-1          58            1010         338.229
  SPECIMEN-1          59              11         338.229
  SPECIMEN-1          59              12         338.229
  SPECIMEN-1          59              13         338.229
  SPECIMEN-1          59              14         338.229
  SPECIMEN-1          59              15         338.229
  SPECIMEN-1          59            1011         338.229
  SPECIMEN-1          59            1012         338.229
  SPECIMEN-1          59            1013         338.229
  SPECIMEN-1          59            1014         338.229
  SPECIMEN-1          59            1015         338.229
  SPECIMEN-1          60              16         338.229
  SPECIMEN-1          60              17         338.229
  SPECIMEN-1          60              18         338.229
  SPECIMEN-1          60              19         338.229
  SPECIMEN-1          60              20         338.229
  SPECIMEN-1          60            1016         338.229
  SPECIMEN-1          60            1017         338.229
  SPECIMEN-1          60            1018         338.229
  SPECIMEN-1          60            1019         338.229
  SPECIMEN-1          60            1020         338.229
  SPECIMEN-1          61              21         338.229
  SPECIMEN-1          61              22         338.229
  SPECIMEN-1          61              23         338.229
  SPECIMEN-1          61              24         338.229
  SPECIMEN-1          61              25         338.229
  SPECIMEN-1          61            1021         338.229
  SPECIMEN-1          61            1022         338.229
  SPECIMEN-1          61            1023         338.229
  SPECIMEN-1          61            1024         338.229
  SPECIMEN-1          61            1025         338.229
  SPECIMEN-1          62              26         338.229
  SPECIMEN-1          62              27         338.229
  SPECIMEN-1          62              28         338.229
  SPECIMEN-1          62              29         338.229
  SPECIMEN-1          62              30         338.229
  SPECIMEN-1          62            1026         338.229
  SPECIMEN-1          62            1027         338.229
  SPECIMEN-1          62            1028         338.229
  SPECIMEN-1          62            1029         338.229
  SPECIMEN-1          62            1030         338.229
  SPECIMEN-1          63              31         338.229
  SPECIMEN-1          63              32         338.229
  SPECIMEN-1          63              33         338.229
  SPECIMEN-1          63              34         338.229
  SPECIMEN-1          63              35         338.229
  SPECIMEN-1          63            1031         338.229
  SPECIMEN-1          63            1032         338.229
  SPECIMEN-1          63            1033         338.229
  SPECIMEN-1          63            1034         338.229
  SPECIMEN-1          63            1035         338.229
  SPECIMEN-1          64              36         338.229
  SPECIMEN-1          64              37         338.229
  SPECIMEN-1          64              38         338.229
  SPECIMEN-1          64              39         338.229
  SPECIMEN-1          64              40         338.229
  SPECIMEN-1          64            1036         338.229
  SPECIMEN-1          64            1037         338.229
  SPECIMEN-1          64            1038         338.229
  SPECIMEN-1          64            1039         338.229
  SPECIMEN-1          64            1040         338.229


