********************************************************************************
Field Output Report, written Thu Apr 24 16:15:44 2025

Source 1
---------

   ODB: C:/lnms/Vid/CrossHoleSym/CrossHoleSymU.odb
   Step: loading
   Frame: Increment      0: Step Time =    0.000

Loc 1 : Integration point values from source 1

Output sorted by column "Element Label".

Field Output reported at integration points for region: SPECIMEN-1.Region_1

          Element              Int            S.S11            S.S22            S.S33            S.S12
            Label               Pt           @Loc 1           @Loc 1           @Loc 1           @Loc 1
-------------------------------------------------------------------------------------------------------
                1                1               0.               0.               0.               0.
                1                2               0.               0.               0.               0.
                1                3               0.               0.               0.               0.
                1                4               0.               0.               0.               0.
                2                1               0.               0.               0.               0.
                2                2               0.               0.               0.               0.
                2                3               0.               0.               0.               0.
                2                4               0.               0.               0.               0.
                3                1               0.               0.               0.               0.
                3                2               0.               0.               0.               0.
                3                3               0.               0.               0.               0.
                3                4               0.               0.               0.               0.
                4                1               0.               0.               0.               0.
                4                2               0.               0.               0.               0.
                4                3               0.               0.               0.               0.
                4                4               0.               0.               0.               0.
                5                1               0.               0.               0.               0.
                5                2               0.               0.               0.               0.
                5                3               0.               0.               0.               0.
                5                4               0.               0.               0.               0.
                6                1               0.               0.               0.               0.
                6                2               0.               0.               0.               0.
                6                3               0.               0.               0.               0.
                6                4               0.               0.               0.               0.
                7                1               0.               0.               0.               0.
                7                2               0.               0.               0.               0.
                7                3               0.               0.               0.               0.
                7                4               0.               0.               0.               0.
                8                1               0.               0.               0.               0.
                8                2               0.               0.               0.               0.
                8                3               0.               0.               0.               0.
                8                4               0.               0.               0.               0.
                9                1               0.               0.               0.               0.
                9                2               0.               0.               0.               0.
                9                3               0.               0.               0.               0.
                9                4               0.               0.               0.               0.
               10                1               0.               0.               0.               0.
               10                2               0.               0.               0.               0.
               10                3               0.               0.               0.               0.
               10                4               0.               0.               0.               0.
               11                1               0.               0.               0.               0.
               11                2               0.               0.               0.               0.
               11                3               0.               0.               0.               0.
               11                4               0.               0.               0.               0.
               12                1               0.               0.               0.               0.
               12                2               0.               0.               0.               0.
               12                3               0.               0.               0.               0.
               12                4               0.               0.               0.               0.
               13                1               0.               0.               0.               0.
               13                2               0.               0.               0.               0.
               13                3               0.               0.               0.               0.
               13                4               0.               0.               0.               0.
               14                1               0.               0.               0.               0.
               14                2               0.               0.               0.               0.
               14                3               0.               0.               0.               0.
               14                4               0.               0.               0.               0.
               15                1               0.               0.               0.               0.
               15                2               0.               0.               0.               0.
               15                3               0.               0.               0.               0.
               15                4               0.               0.               0.               0.
               16                1               0.               0.               0.               0.
               16                2               0.               0.               0.               0.
               16                3               0.               0.               0.               0.
               16                4               0.               0.               0.               0.
               17                1               0.               0.               0.               0.
               17                2               0.               0.               0.               0.
               17                3               0.               0.               0.               0.
               17                4               0.               0.               0.               0.
               18                1               0.               0.               0.               0.
               18                2               0.               0.               0.               0.
               18                3               0.               0.               0.               0.
               18                4               0.               0.               0.               0.
               19                1               0.               0.               0.               0.
               19                2               0.               0.               0.               0.
               19                3               0.               0.               0.               0.
               19                4               0.               0.               0.               0.
               20                1               0.               0.               0.               0.
               20                2               0.               0.               0.               0.
               20                3               0.               0.               0.               0.
               20                4               0.               0.               0.               0.
               21                1               0.               0.               0.               0.
               21                2               0.               0.               0.               0.
               21                3               0.               0.               0.               0.
               21                4               0.               0.               0.               0.
               22                1               0.               0.               0.               0.
               22                2               0.               0.               0.               0.
               22                3               0.               0.               0.               0.
               22                4               0.               0.               0.               0.
               23                1               0.               0.               0.               0.
               23                2               0.               0.               0.               0.
               23                3               0.               0.               0.               0.
               23                4               0.               0.               0.               0.
               24                1               0.               0.               0.               0.
               24                2               0.               0.               0.               0.
               24                3               0.               0.               0.               0.
               24                4               0.               0.               0.               0.
               25                1               0.               0.               0.               0.
               25                2               0.               0.               0.               0.
               25                3               0.               0.               0.               0.
               25                4               0.               0.               0.               0.
               26                1               0.               0.               0.               0.
               26                2               0.               0.               0.               0.
               26                3               0.               0.               0.               0.
               26                4               0.               0.               0.               0.
               27                1               0.               0.               0.               0.
               27                2               0.               0.               0.               0.
               27                3               0.               0.               0.               0.
               27                4               0.               0.               0.               0.
               28                1               0.               0.               0.               0.
               28                2               0.               0.               0.               0.
               28                3               0.               0.               0.               0.
               28                4               0.               0.               0.               0.
               29                1               0.               0.               0.               0.
               29                2               0.               0.               0.               0.
               29                3               0.               0.               0.               0.
               29                4               0.               0.               0.               0.
               30                1               0.               0.               0.               0.
               30                2               0.               0.               0.               0.
               30                3               0.               0.               0.               0.
               30                4               0.               0.               0.               0.
               31                1               0.               0.               0.               0.
               31                2               0.               0.               0.               0.
               31                3               0.               0.               0.               0.
               31                4               0.               0.               0.               0.
               32                1               0.               0.               0.               0.
               32                2               0.               0.               0.               0.
               32                3               0.               0.               0.               0.
               32                4               0.               0.               0.               0.
               33                1               0.               0.               0.               0.
               33                2               0.               0.               0.               0.
               33                3               0.               0.               0.               0.
               33                4               0.               0.               0.               0.
               34                1               0.               0.               0.               0.
               34                2               0.               0.               0.               0.
               34                3               0.               0.               0.               0.
               34                4               0.               0.               0.               0.
               35                1               0.               0.               0.               0.
               35                2               0.               0.               0.               0.
               35                3               0.               0.               0.               0.
               35                4               0.               0.               0.               0.
               36                1               0.               0.               0.               0.
               36                2               0.               0.               0.               0.
               36                3               0.               0.               0.               0.
               36                4               0.               0.               0.               0.
               37                1               0.               0.               0.               0.
               37                2               0.               0.               0.               0.
               37                3               0.               0.               0.               0.
               37                4               0.               0.               0.               0.
               38                1               0.               0.               0.               0.
               38                2               0.               0.               0.               0.
               38                3               0.               0.               0.               0.
               38                4               0.               0.               0.               0.
               39                1               0.               0.               0.               0.
               39                2               0.               0.               0.               0.
               39                3               0.               0.               0.               0.
               39                4               0.               0.               0.               0.
               40                1               0.               0.               0.               0.
               40                2               0.               0.               0.               0.
               40                3               0.               0.               0.               0.
               40                4               0.               0.               0.               0.


********************************************************************************
Field Output Report, written Thu Apr 24 16:16:00 2025

Source 1
---------

   ODB: C:/lnms/Vid/CrossHoleSym/CrossHoleSymU.odb
   Step: loading
   Frame: Increment      1: Step Time =   0.1000

Loc 1 : Integration point values from source 1

Output sorted by column "Element Label".

Field Output reported at integration points for region: SPECIMEN-1.Region_1

          Element              Int            S.S11            S.S22            S.S33            S.S12
            Label               Pt           @Loc 1           @Loc 1           @Loc 1           @Loc 1
-------------------------------------------------------------------------------------------------------
                1                1       131.379303       93.2691727               0.      -58.9211617
                1                2       110.962822       79.2181320               0.      -67.9483414
                1                3       114.193726       90.1875229               0.      -61.0640526
                1                4       93.6775360       76.8032761               0.      -68.9159927
                2                1       84.7332458       86.7537384               0.      -69.8942337
                2                2       93.4004745       115.299515               0.      -69.0551987
                2                3       96.4532776       111.734123               0.      -61.8686333
                2                4       104.789345       139.264725               0.      -59.1077805
                3                1       65.3953400       129.413849               0.      -34.6064453
                3                2       71.4475098       143.317413               0.      -15.0459137
                3                3       39.4645119       76.5484467               0.      -52.1374702
                3                4       55.0958519       110.924919               0.      -30.1485786
                4                1       108.760963       96.7655945               0.      -17.5019150
                4                2       118.893402       74.1186142               0.      -10.1554470
                4                3       113.712379       89.5638275               0.      -20.4664783
                4                4       119.863724       69.9856415               0.      -15.8619041
                5                1       120.118668       53.3209534               0.      -23.2641087
                5                2       144.257889       67.5528030               0.      -11.4256907
                5                3       82.2943039       23.2548561               0.      -50.3860130
                5                4       124.901848       47.9090729               0.      -36.2456970
                6                1       139.264725       104.789345               0.      -59.1077805
                6                2       115.299515       93.4004745               0.      -69.0551987
                6                3       111.734123       96.4532776               0.      -61.8686333
                6                4       86.7537384       84.7332458               0.      -69.8942337
                7                1       76.8032761       93.6775360               0.      -68.9159927
                7                2       79.2181320       110.962822               0.      -67.9483414
                7                3       90.1875229       114.193726               0.      -61.0640526
                7                4       93.2691727       131.379303               0.      -58.9211617
                8                1       47.9090729       124.901848               0.      -36.2456970
                8                2       67.5528030       144.257889               0.      -11.4256907
                8                3       23.2548561       82.2943039               0.      -50.3860130
                8                4       53.3209534       120.118668               0.      -23.2641087
                9                1       69.9856415       119.863724               0.      -15.8619041
                9                2       74.1186142       118.893402               0.      -10.1554470
                9                3       89.5638275       113.712379               0.      -20.4664783
                9                4       96.7655945       108.760963               0.      -17.5019150
               10                1       110.924919       55.0958519               0.      -30.1485786
               10                2       143.317413       71.4475098               0.      -15.0459137
               10                3       76.5484467       39.4645119               0.      -52.1374702
               10                4       129.413849       65.3953400               0.      -34.6064453
               11                1       93.2691727       131.379303               0.       58.9211617
               11                2       79.2181320       110.962822               0.       67.9483414
               11                3       90.1875229       114.193726               0.       61.0640526
               11                4       76.8032761       93.6775360               0.       68.9159927
               12                1       86.7537384       84.7332458               0.       69.8942337
               12                2       115.299515       93.4004745               0.       69.0551987
               12                3       111.734123       96.4532776               0.       61.8686333
               12                4       139.264725       104.789345               0.       59.1077805
               13                1       129.413849       65.3953400               0.       34.6064453
               13                2       143.317413       71.4475098               0.       15.0459137
               13                3       76.5484467       39.4645119               0.       52.1374702
               13                4       110.924919       55.0958519               0.       30.1485786
               14                1       96.7655945       108.760963               0.       17.5019150
               14                2       74.1186142       118.893402               0.       10.1554470
               14                3       89.5638275       113.712379               0.       20.4664783
               14                4       69.9856415       119.863724               0.       15.8619041
               15                1       53.3209534       120.118668               0.       23.2641087
               15                2       67.5528030       144.257889               0.       11.4256907
               15                3       23.2548561       82.2943039               0.       50.3860130
               15                4       47.9090729       124.901848               0.       36.2456970
               16                1       104.789345       139.264725               0.       59.1077805
               16                2       93.4004745       115.299515               0.       69.0551987
               16                3       96.4532776       111.734123               0.       61.8686333
               16                4       84.7332458       86.7537384               0.       69.8942337
               17                1       93.6775360       76.8032761               0.       68.9159927
               17                2       110.962822       79.2181320               0.       67.9483414
               17                3       114.193726       90.1875229               0.       61.0640526
               17                4       131.379303       93.2691727               0.       58.9211617
               18                1       124.901848       47.9090729               0.       36.2456970
               18                2       144.257889       67.5528030               0.       11.4256907
               18                3       82.2943039       23.2548561               0.       50.3860130
               18                4       120.118668       53.3209534               0.       23.2641087
               19                1       119.863724       69.9856415               0.       15.8619041
               19                2       118.893402       74.1186142               0.       10.1554470
               19                3       113.712379       89.5638275               0.       20.4664783
               19                4       108.760963       96.7655945               0.       17.5019150
               20                1       55.0958519       110.924919               0.       30.1485786
               20                2       71.4475098       143.317413               0.       15.0459137
               20                3       39.4645119       76.5484467               0.       52.1374702
               20                4       65.3953400       129.413849               0.       34.6064453
               21                1       139.264725       104.789345               0.      -59.1077805
               21                2       115.299515       93.4004745               0.      -69.0551987
               21                3       111.734123       96.4532776               0.      -61.8686333
               21                4       86.7537384       84.7332458               0.      -69.8942337
               22                1       76.8032761       93.6775360               0.      -68.9159927
               22                2       79.2181320       110.962822               0.      -67.9483414
               22                3       90.1875229       114.193726               0.      -61.0640526
               22                4       93.2691727       131.379303               0.      -58.9211617
               23                1       47.9090729       124.901848               0.      -36.2456970
               23                2       67.5528030       144.257889               0.      -11.4256907
               23                3       23.2548561       82.2943039               0.      -50.3860130
               23                4       53.3209534       120.118668               0.      -23.2641087
               24                1       69.9856415       119.863724               0.      -15.8619041
               24                2       74.1186142       118.893402               0.      -10.1554470
               24                3       89.5638275       113.712379               0.      -20.4664783
               24                4       96.7655945       108.760963               0.      -17.5019150
               25                1       110.924919       55.0958519               0.      -30.1485786
               25                2       143.317413       71.4475098               0.      -15.0459137
               25                3       76.5484467       39.4645119               0.      -52.1374702
               25                4       129.413849       65.3953400               0.      -34.6064453
               26                1       104.789345       139.264725               0.       59.1077805
               26                2       93.4004745       115.299515               0.       69.0551987
               26                3       96.4532776       111.734123               0.       61.8686333
               26                4       84.7332458       86.7537384               0.       69.8942337
               27                1       93.6775360       76.8032761               0.       68.9159927
               27                2       110.962822       79.2181320               0.       67.9483414
               27                3       114.193726       90.1875229               0.       61.0640526
               27                4       131.379303       93.2691727               0.       58.9211617
               28                1       124.901848       47.9090729               0.       36.2456970
               28                2       144.257889       67.5528030               0.       11.4256907
               28                3       82.2943039       23.2548561               0.       50.3860130
               28                4       120.118668       53.3209534               0.       23.2641087
               29                1       119.863724       69.9856415               0.       15.8619041
               29                2       118.893402       74.1186142               0.       10.1554470
               29                3       113.712379       89.5638275               0.       20.4664783
               29                4       108.760963       96.7655945               0.       17.5019150
               30                1       55.0958519       110.924919               0.       30.1485786
               30                2       71.4475098       143.317413               0.       15.0459137
               30                3       39.4645119       76.5484467               0.       52.1374702
               30                4       65.3953400       129.413849               0.       34.6064453
               31                1       93.2691727       131.379303               0.       58.9211617
               31                2       79.2181320       110.962822               0.       67.9483414
               31                3       90.1875229       114.193726               0.       61.0640526
               31                4       76.8032761       93.6775360               0.       68.9159927
               32                1       86.7537384       84.7332458               0.       69.8942337
               32                2       115.299515       93.4004745               0.       69.0551987
               32                3       111.734123       96.4532776               0.       61.8686333
               32                4       139.264725       104.789345               0.       59.1077805
               33                1       129.413849       65.3953400               0.       34.6064453
               33                2       143.317413       71.4475098               0.       15.0459137
               33                3       76.5484467       39.4645119               0.       52.1374702
               33                4       110.924919       55.0958519               0.       30.1485786
               34                1       96.7655945       108.760963               0.       17.5019150
               34                2       74.1186142       118.893402               0.       10.1554470
               34                3       89.5638275       113.712379               0.       20.4664783
               34                4       69.9856415       119.863724               0.       15.8619041
               35                1       53.3209534       120.118668               0.       23.2641087
               35                2       67.5528030       144.257889               0.       11.4256907
               35                3       23.2548561       82.2943039               0.       50.3860130
               35                4       47.9090729       124.901848               0.       36.2456970
               36                1       131.379303       93.2691727               0.      -58.9211617
               36                2       110.962822       79.2181320               0.      -67.9483414
               36                3       114.193726       90.1875229               0.      -61.0640526
               36                4       93.6775360       76.8032761               0.      -68.9159927
               37                1       84.7332458       86.7537384               0.      -69.8942337
               37                2       93.4004745       115.299515               0.      -69.0551987
               37                3       96.4532776       111.734123               0.      -61.8686333
               37                4       104.789345       139.264725               0.      -59.1077805
               38                1       65.3953400       129.413849               0.      -34.6064453
               38                2       71.4475098       143.317413               0.      -15.0459137
               38                3       39.4645119       76.5484467               0.      -52.1374702
               38                4       55.0958519       110.924919               0.      -30.1485786
               39                1       108.760963       96.7655945               0.      -17.5019150
               39                2       118.893402       74.1186142               0.      -10.1554470
               39                3       113.712379       89.5638275               0.      -20.4664783
               39                4       119.863724       69.9856415               0.      -15.8619041
               40                1       120.118668       53.3209534               0.      -23.2641087
               40                2       144.257889       67.5528030               0.      -11.4256907
               40                3       82.2943039       23.2548561               0.      -50.3860130
               40                4       124.901848       47.9090729               0.      -36.2456970


********************************************************************************
Field Output Report, written Thu Apr 24 16:16:11 2025

Source 1
---------

   ODB: C:/lnms/Vid/CrossHoleSym/CrossHoleSymU.odb
   Step: loading
   Frame: Increment      2: Step Time =   0.2000

Loc 1 : Integration point values from source 1

Output sorted by column "Element Label".

Field Output reported at integration points for region: SPECIMEN-1.Region_1

          Element              Int            S.S11            S.S22            S.S33            S.S12
            Label               Pt           @Loc 1           @Loc 1           @Loc 1           @Loc 1
-------------------------------------------------------------------------------------------------------
                1                1       161.458725       111.996712               0.      -79.5213318
                1                2       138.841431       107.190392               0.      -87.2685852
                1                3       136.138672       98.6925354               0.      -80.1211319
                1                4       112.485634       92.6838837               0.      -86.9846802
                2                1       101.854271       106.222733               0.      -87.7448349
                2                2       120.265831       143.567795               0.      -89.5406342
                2                3       111.068192       134.378296               0.      -80.4417648
                2                4       128.191742       171.291046               0.      -80.3029633
                3                1       84.8144913       164.654114               0.      -42.9631882
                3                2       88.1253738       178.278030               0.      -24.0593338
                3                3       57.4551201       111.333862               0.      -50.9533424
                3                4       63.1051712       130.252869               0.      -32.3881493
                4                1       126.769356       116.481888               0.      -18.5990028
                4                2       133.532196       86.5061417               0.      -11.0066414
                4                3       135.928314       111.251984               0.      -23.9346409
                4                4       139.326935       84.1720123               0.      -19.1667919
                5                1       145.702469       67.1951981               0.      -24.7045517
                5                2       183.476944       86.1387711               0.      -16.5769711
                5                3       124.181252       42.5726166               0.      -47.1539879
                5                4       164.302628       62.4188957               0.      -40.1632919
                6                1       171.291046       128.191742               0.      -80.3029633
                6                2       143.567795       120.265831               0.      -89.5406342
                6                3       134.378296       111.068192               0.      -80.4417648
                6                4       106.222733       101.854271               0.      -87.7448349
                7                1       92.6838837       112.485634               0.      -86.9846802
                7                2       107.190392       138.841431               0.      -87.2685852
                7                3       98.6925354       136.138672               0.      -80.1211319
                7                4       111.996712       161.458725               0.      -79.5213318
                8                1       62.4188957       164.302628               0.      -40.1632919
                8                2       86.1387711       183.476944               0.      -16.5769711
                8                3       42.5726166       124.181252               0.      -47.1539879
                8                4       67.1951981       145.702469               0.      -24.7045517
                9                1       84.1720123       139.326935               0.      -19.1667919
                9                2       86.5061417       133.532196               0.      -11.0066414
                9                3       111.251984       135.928314               0.      -23.9346409
                9                4       116.481888       126.769356               0.      -18.5990028
               10                1       130.252869       63.1051712               0.      -32.3881493
               10                2       178.278030       88.1253738               0.      -24.0593338
               10                3       111.333862       57.4551201               0.      -50.9533424
               10                4       164.654114       84.8144913               0.      -42.9631882
               11                1       111.996712       161.458725               0.       79.5213318
               11                2       107.190392       138.841431               0.       87.2685852
               11                3       98.6925354       136.138672               0.       80.1211319
               11                4       92.6838837       112.485634               0.       86.9846802
               12                1       106.222733       101.854271               0.       87.7448349
               12                2       143.567795       120.265831               0.       89.5406342
               12                3       134.378296       111.068192               0.       80.4417648
               12                4       171.291046       128.191742               0.       80.3029633
               13                1       164.654114       84.8144913               0.       42.9631882
               13                2       178.278030       88.1253738               0.       24.0593338
               13                3       111.333862       57.4551201               0.       50.9533424
               13                4       130.252869       63.1051712               0.       32.3881493
               14                1       116.481888       126.769356               0.       18.5990028
               14                2       86.5061417       133.532196               0.       11.0066414
               14                3       111.251984       135.928314               0.       23.9346409
               14                4       84.1720123       139.326935               0.       19.1667919
               15                1       67.1951981       145.702469               0.       24.7045517
               15                2       86.1387711       183.476944               0.       16.5769711
               15                3       42.5726166       124.181252               0.       47.1539879
               15                4       62.4188957       164.302628               0.       40.1632919
               16                1       128.191742       171.291046               0.       80.3029633
               16                2       120.265831       143.567795               0.       89.5406342
               16                3       111.068192       134.378296               0.       80.4417648
               16                4       101.854271       106.222733               0.       87.7448349
               17                1       112.485634       92.6838837               0.       86.9846802
               17                2       138.841431       107.190392               0.       87.2685852
               17                3       136.138672       98.6925354               0.       80.1211319
               17                4       161.458725       111.996712               0.       79.5213318
               18                1       164.302628       62.4188957               0.       40.1632919
               18                2       183.476944       86.1387711               0.       16.5769711
               18                3       124.181252       42.5726166               0.       47.1539879
               18                4       145.702469       67.1951981               0.       24.7045517
               19                1       139.326935       84.1720123               0.       19.1667919
               19                2       133.532196       86.5061417               0.       11.0066414
               19                3       135.928314       111.251984               0.       23.9346409
               19                4       126.769356       116.481888               0.       18.5990028
               20                1       63.1051712       130.252869               0.       32.3881493
               20                2       88.1253738       178.278030               0.       24.0593338
               20                3       57.4551201       111.333862               0.       50.9533424
               20                4       84.8144913       164.654114               0.       42.9631882
               21                1       171.291046       128.191742               0.      -80.3029633
               21                2       143.567795       120.265831               0.      -89.5406342
               21                3       134.378296       111.068192               0.      -80.4417648
               21                4       106.222733       101.854271               0.      -87.7448349
               22                1       92.6838837       112.485634               0.      -86.9846802
               22                2       107.190392       138.841431               0.      -87.2685852
               22                3       98.6925354       136.138672               0.      -80.1211319
               22                4       111.996712       161.458725               0.      -79.5213318
               23                1       62.4188957       164.302628               0.      -40.1632919
               23                2       86.1387711       183.476944               0.      -16.5769711
               23                3       42.5726166       124.181252               0.      -47.1539879
               23                4       67.1951981       145.702469               0.      -24.7045517
               24                1       84.1720123       139.326935               0.      -19.1667919
               24                2       86.5061417       133.532196               0.      -11.0066414
               24                3       111.251984       135.928314               0.      -23.9346409
               24                4       116.481888       126.769356               0.      -18.5990028
               25                1       130.252869       63.1051712               0.      -32.3881493
               25                2       178.278030       88.1253738               0.      -24.0593338
               25                3       111.333862       57.4551201               0.      -50.9533424
               25                4       164.654114       84.8144913               0.      -42.9631882
               26                1       128.191742       171.291046               0.       80.3029633
               26                2       120.265831       143.567795               0.       89.5406342
               26                3       111.068192       134.378296               0.       80.4417648
               26                4       101.854271       106.222733               0.       87.7448349
               27                1       112.485634       92.6838837               0.       86.9846802
               27                2       138.841431       107.190392               0.       87.2685852
               27                3       136.138672       98.6925354               0.       80.1211319
               27                4       161.458725       111.996712               0.       79.5213318
               28                1       164.302628       62.4188957               0.       40.1632919
               28                2       183.476944       86.1387711               0.       16.5769711
               28                3       124.181252       42.5726166               0.       47.1539879
               28                4       145.702469       67.1951981               0.       24.7045517
               29                1       139.326935       84.1720123               0.       19.1667919
               29                2       133.532196       86.5061417               0.       11.0066414
               29                3       135.928314       111.251984               0.       23.9346409
               29                4       126.769356       116.481888               0.       18.5990028
               30                1       63.1051712       130.252869               0.       32.3881493
               30                2       88.1253738       178.278030               0.       24.0593338
               30                3       57.4551201       111.333862               0.       50.9533424
               30                4       84.8144913       164.654114               0.       42.9631882
               31                1       111.996712       161.458725               0.       79.5213318
               31                2       107.190392       138.841431               0.       87.2685852
               31                3       98.6925354       136.138672               0.       80.1211319
               31                4       92.6838837       112.485634               0.       86.9846802
               32                1       106.222733       101.854271               0.       87.7448349
               32                2       143.567795       120.265831               0.       89.5406342
               32                3       134.378296       111.068192               0.       80.4417648
               32                4       171.291046       128.191742               0.       80.3029633
               33                1       164.654114       84.8144913               0.       42.9631882
               33                2       178.278030       88.1253738               0.       24.0593338
               33                3       111.333862       57.4551201               0.       50.9533424
               33                4       130.252869       63.1051712               0.       32.3881493
               34                1       116.481888       126.769356               0.       18.5990028
               34                2       86.5061417       133.532196               0.       11.0066414
               34                3       111.251984       135.928314               0.       23.9346409
               34                4       84.1720123       139.326935               0.       19.1667919
               35                1       67.1951981       145.702469               0.       24.7045517
               35                2       86.1387711       183.476944               0.       16.5769711
               35                3       42.5726166       124.181252               0.       47.1539879
               35                4       62.4188957       164.302628               0.       40.1632919
               36                1       161.458725       111.996712               0.      -79.5213318
               36                2       138.841431       107.190392               0.      -87.2685852
               36                3       136.138672       98.6925354               0.      -80.1211319
               36                4       112.485634       92.6838837               0.      -86.9846802
               37                1       101.854271       106.222733               0.      -87.7448349
               37                2       120.265831       143.567795               0.      -89.5406342
               37                3       111.068192       134.378296               0.      -80.4417648
               37                4       128.191742       171.291046               0.      -80.3029633
               38                1       84.8144913       164.654114               0.      -42.9631882
               38                2       88.1253738       178.278030               0.      -24.0593338
               38                3       57.4551201       111.333862               0.      -50.9533424
               38                4       63.1051712       130.252869               0.      -32.3881493
               39                1       126.769356       116.481888               0.      -18.5990028
               39                2       133.532196       86.5061417               0.      -11.0066414
               39                3       135.928314       111.251984               0.      -23.9346409
               39                4       139.326935       84.1720123               0.      -19.1667919
               40                1       145.702469       67.1951981               0.      -24.7045517
               40                2       183.476944       86.1387711               0.      -16.5769711
               40                3       124.181252       42.5726166               0.      -47.1539879
               40                4       164.302628       62.4188957               0.      -40.1632919


********************************************************************************
Field Output Report, written Thu Apr 24 16:16:15 2025

Source 1
---------

   ODB: C:/lnms/Vid/CrossHoleSym/CrossHoleSymU.odb
   Step: loading
   Frame: Increment      3: Step Time =   0.3000

Loc 1 : Integration point values from source 1

Output sorted by column "Element Label".

Field Output reported at integration points for region: SPECIMEN-1.Region_1

          Element              Int            S.S11            S.S22            S.S33            S.S12
            Label               Pt           @Loc 1           @Loc 1           @Loc 1           @Loc 1
-------------------------------------------------------------------------------------------------------
                1                1       194.274506       133.008057               0.      -96.5466156
                1                2       166.640839       129.956329               0.      -105.640839
                1                3       160.444870       113.158722               0.      -95.5126190
                1                4       131.489548       108.263664               0.      -103.482674
                2                1       118.645592       125.080315               0.      -104.149864
                2                2       144.124405       171.472351               0.      -108.411217
                2                3       128.196777       158.280869               0.      -96.1204300
                2                4       151.855026       204.589539               0.      -98.0277634
                3                1       101.308868       198.305252               0.      -51.9411354
                3                2       104.787743       213.932648               0.      -29.7904758
                3                3       65.8341827       129.678314               0.      -57.0955811
                3                4       70.5136871       148.100723               0.      -36.4906883
                4                1       146.249451       134.925995               0.      -20.9939251
                4                2       149.242889       97.1115112               0.      -12.2060213
                4                3       159.849319       131.574142               0.      -27.9201546
                4                4       160.080154       97.1049118               0.      -22.1443424
                5                1       169.815292       78.1025467               0.      -28.5211525
                5                2       221.844101       103.599945               0.      -20.4632435
                5                3       147.026581       49.5618019               0.      -53.0971603
                5                4       198.140686       73.1240845               0.      -47.6803093
                6                1       204.589539       151.855026               0.      -98.0277634
                6                2       171.472351       144.124405               0.      -108.411217
                6                3       158.280869       128.196777               0.      -96.1204300
                6                4       125.080315       118.645592               0.      -104.149864
                7                1       108.263664       131.489548               0.      -103.482674
                7                2       129.956329       166.640839               0.      -105.640839
                7                3       113.158722       160.444870               0.      -95.5126190
                7                4       133.008057       194.274506               0.      -96.5466156
                8                1       73.1240845       198.140686               0.      -47.6803093
                8                2       103.599945       221.844101               0.      -20.4632435
                8                3       49.5618019       147.026581               0.      -53.0971603
                8                4       78.1025467       169.815292               0.      -28.5211525
                9                1       97.1049118       160.080154               0.      -22.1443424
                9                2       97.1115112       149.242889               0.      -12.2060213
                9                3       131.574142       159.849319               0.      -27.9201546
                9                4       134.925995       146.249451               0.      -20.9939251
               10                1       148.100723       70.5136871               0.      -36.4906883
               10                2       213.932648       104.787743               0.      -29.7904758
               10                3       129.678314       65.8341827               0.      -57.0955811
               10                4       198.305252       101.308868               0.      -51.9411354
               11                1       133.008057       194.274506               0.       96.5466156
               11                2       129.956329       166.640839               0.       105.640839
               11                3       113.158722       160.444870               0.       95.5126190
               11                4       108.263664       131.489548               0.       103.482674
               12                1       125.080315       118.645592               0.       104.149864
               12                2       171.472351       144.124405               0.       108.411217
               12                3       158.280869       128.196777               0.       96.1204300
               12                4       204.589539       151.855026               0.       98.0277634
               13                1       198.305252       101.308868               0.       51.9411354
               13                2       213.932648       104.787743               0.       29.7904758
               13                3       129.678314       65.8341827               0.       57.0955811
               13                4       148.100723       70.5136871               0.       36.4906883
               14                1       134.925995       146.249451               0.       20.9939251
               14                2       97.1115112       149.242889               0.       12.2060213
               14                3       131.574142       159.849319               0.       27.9201546
               14                4       97.1049118       160.080154               0.       22.1443424
               15                1       78.1025467       169.815292               0.       28.5211525
               15                2       103.599945       221.844101               0.       20.4632435
               15                3       49.5618019       147.026581               0.       53.0971603
               15                4       73.1240845       198.140686               0.       47.6803093
               16                1       151.855026       204.589539               0.       98.0277634
               16                2       144.124405       171.472351               0.       108.411217
               16                3       128.196777       158.280869               0.       96.1204300
               16                4       118.645592       125.080315               0.       104.149864
               17                1       131.489548       108.263664               0.       103.482674
               17                2       166.640839       129.956329               0.       105.640839
               17                3       160.444870       113.158722               0.       95.5126190
               17                4       194.274506       133.008057               0.       96.5466156
               18                1       198.140686       73.1240845               0.       47.6803093
               18                2       221.844101       103.599945               0.       20.4632435
               18                3       147.026581       49.5618019               0.       53.0971603
               18                4       169.815292       78.1025467               0.       28.5211525
               19                1       160.080154       97.1049118               0.       22.1443424
               19                2       149.242889       97.1115112               0.       12.2060213
               19                3       159.849319       131.574142               0.       27.9201546
               19                4       146.249451       134.925995               0.       20.9939251
               20                1       70.5136871       148.100723               0.       36.4906883
               20                2       104.787743       213.932648               0.       29.7904758
               20                3       65.8341827       129.678314               0.       57.0955811
               20                4       101.308868       198.305252               0.       51.9411354
               21                1       204.589539       151.855026               0.      -98.0277634
               21                2       171.472351       144.124405               0.      -108.411217
               21                3       158.280869       128.196777               0.      -96.1204300
               21                4       125.080315       118.645592               0.      -104.149864
               22                1       108.263664       131.489548               0.      -103.482674
               22                2       129.956329       166.640839               0.      -105.640839
               22                3       113.158722       160.444870               0.      -95.5126190
               22                4       133.008057       194.274506               0.      -96.5466156
               23                1       73.1240845       198.140686               0.      -47.6803093
               23                2       103.599945       221.844101               0.      -20.4632435
               23                3       49.5618019       147.026581               0.      -53.0971603
               23                4       78.1025467       169.815292               0.      -28.5211525
               24                1       97.1049118       160.080154               0.      -22.1443424
               24                2       97.1115112       149.242889               0.      -12.2060213
               24                3       131.574142       159.849319               0.      -27.9201546
               24                4       134.925995       146.249451               0.      -20.9939251
               25                1       148.100723       70.5136871               0.      -36.4906883
               25                2       213.932648       104.787743               0.      -29.7904758
               25                3       129.678314       65.8341827               0.      -57.0955811
               25                4       198.305252       101.308868               0.      -51.9411354
               26                1       151.855026       204.589539               0.       98.0277634
               26                2       144.124405       171.472351               0.       108.411217
               26                3       128.196777       158.280869               0.       96.1204300
               26                4       118.645592       125.080315               0.       104.149864
               27                1       131.489548       108.263664               0.       103.482674
               27                2       166.640839       129.956329               0.       105.640839
               27                3       160.444870       113.158722               0.       95.5126190
               27                4       194.274506       133.008057               0.       96.5466156
               28                1       198.140686       73.1240845               0.       47.6803093
               28                2       221.844101       103.599945               0.       20.4632435
               28                3       147.026581       49.5618019               0.       53.0971603
               28                4       169.815292       78.1025467               0.       28.5211525
               29                1       160.080154       97.1049118               0.       22.1443424
               29                2       149.242889       97.1115112               0.       12.2060213
               29                3       159.849319       131.574142               0.       27.9201546
               29                4       146.249451       134.925995               0.       20.9939251
               30                1       70.5136871       148.100723               0.       36.4906883
               30                2       104.787743       213.932648               0.       29.7904758
               30                3       65.8341827       129.678314               0.       57.0955811
               30                4       101.308868       198.305252               0.       51.9411354
               31                1       133.008057       194.274506               0.       96.5466156
               31                2       129.956329       166.640839               0.       105.640839
               31                3       113.158722       160.444870               0.       95.5126190
               31                4       108.263664       131.489548               0.       103.482674
               32                1       125.080315       118.645592               0.       104.149864
               32                2       171.472351       144.124405               0.       108.411217
               32                3       158.280869       128.196777               0.       96.1204300
               32                4       204.589539       151.855026               0.       98.0277634
               33                1       198.305252       101.308868               0.       51.9411354
               33                2       213.932648       104.787743               0.       29.7904758
               33                3       129.678314       65.8341827               0.       57.0955811
               33                4       148.100723       70.5136871               0.       36.4906883
               34                1       134.925995       146.249451               0.       20.9939251
               34                2       97.1115112       149.242889               0.       12.2060213
               34                3       131.574142       159.849319               0.       27.9201546
               34                4       97.1049118       160.080154               0.       22.1443424
               35                1       78.1025467       169.815292               0.       28.5211525
               35                2       103.599945       221.844101               0.       20.4632435
               35                3       49.5618019       147.026581               0.       53.0971603
               35                4       73.1240845       198.140686               0.       47.6803093
               36                1       194.274506       133.008057               0.      -96.5466156
               36                2       166.640839       129.956329               0.      -105.640839
               36                3       160.444870       113.158722               0.      -95.5126190
               36                4       131.489548       108.263664               0.      -103.482674
               37                1       118.645592       125.080315               0.      -104.149864
               37                2       144.124405       171.472351               0.      -108.411217
               37                3       128.196777       158.280869               0.      -96.1204300
               37                4       151.855026       204.589539               0.      -98.0277634
               38                1       101.308868       198.305252               0.      -51.9411354
               38                2       104.787743       213.932648               0.      -29.7904758
               38                3       65.8341827       129.678314               0.      -57.0955811
               38                4       70.5136871       148.100723               0.      -36.4906883
               39                1       146.249451       134.925995               0.      -20.9939251
               39                2       149.242889       97.1115112               0.      -12.2060213
               39                3       159.849319       131.574142               0.      -27.9201546
               39                4       160.080154       97.1049118               0.      -22.1443424
               40                1       169.815292       78.1025467               0.      -28.5211525
               40                2       221.844101       103.599945               0.      -20.4632435
               40                3       147.026581       49.5618019               0.      -53.0971603
               40                4       198.140686       73.1240845               0.      -47.6803093


********************************************************************************
Field Output Report, written Thu Apr 24 16:16:19 2025

Source 1
---------

   ODB: C:/lnms/Vid/CrossHoleSym/CrossHoleSymU.odb
   Step: loading
   Frame: Increment      4: Step Time =   0.4000

Loc 1 : Integration point values from source 1

Output sorted by column "Element Label".

Field Output reported at integration points for region: SPECIMEN-1.Region_1

          Element              Int            S.S11            S.S22            S.S33            S.S12
            Label               Pt           @Loc 1           @Loc 1           @Loc 1           @Loc 1
-------------------------------------------------------------------------------------------------------
                1                1       226.223572       154.085907               0.      -113.081696
                1                2       192.970047       150.344116               0.      -124.051277
                1                3       184.488373       129.245331               0.      -110.259140
                1                4       149.950775       123.301422               0.      -119.696968
                2                1       134.802826       142.797012               0.      -120.417618
                2                2       166.411804       197.958191               0.      -127.149429
                2                3       145.724014       181.681686               0.      -111.322044
                2                4       175.146805       237.134491               0.      -115.145332
                3                1       116.089920       229.891327               0.      -60.9834709
                3                2       120.545197       248.201111               0.      -34.8878250
                3                3       71.8271942       144.426315               0.      -64.6539536
                3                4       77.1969528       164.800278               0.      -40.9780617
                4                1       165.057144       152.623535               0.      -23.5932961
                4                2       164.457901       107.283539               0.      -13.4700727
                4                3       182.974548       150.970322               0.      -31.8645763
                4                4       180.177628       109.501793               0.      -24.9606514
                5                1       192.700363       88.1131363               0.      -32.4687805
                5                2       258.163239       119.951057               0.      -23.8785419
                5                3       165.962616       53.7607498               0.      -60.5451355
                5                4       229.015854       81.9875793               0.      -55.6501465
                6                1       237.134491       175.146805               0.      -115.145332
                6                2       197.958191       166.411804               0.      -127.149429
                6                3       181.681686       145.724014               0.      -111.322044
                6                4       142.797012       134.802826               0.      -120.417618
                7                1       123.301422       149.950775               0.      -119.696968
                7                2       150.344116       192.970047               0.      -124.051277
                7                3       129.245331       184.488373               0.      -110.259140
                7                4       154.085907       226.223572               0.      -113.081696
                8                1       81.9875793       229.015854               0.      -55.6501465
                8                2       119.951057       258.163239               0.      -23.8785419
                8                3       53.7607498       165.962616               0.      -60.5451355
                8                4       88.1131363       192.700363               0.      -32.4687805
                9                1       109.501793       180.177628               0.      -24.9606514
                9                2       107.283539       164.457901               0.      -13.4700727
                9                3       150.970322       182.974548               0.      -31.8645763
                9                4       152.623535       165.057144               0.      -23.5932961
               10                1       164.800278       77.1969528               0.      -40.9780617
               10                2       248.201111       120.545197               0.      -34.8878250
               10                3       144.426315       71.8271942               0.      -64.6539536
               10                4       229.891327       116.089920               0.      -60.9834709
               11                1       154.085907       226.223572               0.       113.081696
               11                2       150.344116       192.970047               0.       124.051277
               11                3       129.245331       184.488373               0.       110.259140
               11                4       123.301422       149.950775               0.       119.696968
               12                1       142.797012       134.802826               0.       120.417618
               12                2       197.958191       166.411804               0.       127.149429
               12                3       181.681686       145.724014               0.       111.322044
               12                4       237.134491       175.146805               0.       115.145332
               13                1       229.891327       116.089920               0.       60.9834709
               13                2       248.201111       120.545197               0.       34.8878250
               13                3       144.426315       71.8271942               0.       64.6539536
               13                4       164.800278       77.1969528               0.       40.9780617
               14                1       152.623535       165.057144               0.       23.5932961
               14                2       107.283539       164.457901               0.       13.4700727
               14                3       150.970322       182.974548               0.       31.8645763
               14                4       109.501793       180.177628               0.       24.9606514
               15                1       88.1131363       192.700363               0.       32.4687805
               15                2       119.951057       258.163239               0.       23.8785419
               15                3       53.7607498       165.962616               0.       60.5451355
               15                4       81.9875793       229.015854               0.       55.6501465
               16                1       175.146805       237.134491               0.       115.145332
               16                2       166.411804       197.958191               0.       127.149429
               16                3       145.724014       181.681686               0.       111.322044
               16                4       134.802826       142.797012               0.       120.417618
               17                1       149.950775       123.301422               0.       119.696968
               17                2       192.970047       150.344116               0.       124.051277
               17                3       184.488373       129.245331               0.       110.259140
               17                4       226.223572       154.085907               0.       113.081696
               18                1       229.015854       81.9875793               0.       55.6501465
               18                2       258.163239       119.951057               0.       23.8785419
               18                3       165.962616       53.7607498               0.       60.5451355
               18                4       192.700363       88.1131363               0.       32.4687805
               19                1       180.177628       109.501793               0.       24.9606514
               19                2       164.457901       107.283539               0.       13.4700727
               19                3       182.974548       150.970322               0.       31.8645763
               19                4       165.057144       152.623535               0.       23.5932961
               20                1       77.1969528       164.800278               0.       40.9780617
               20                2       120.545197       248.201111               0.       34.8878250
               20                3       71.8271942       144.426315               0.       64.6539536
               20                4       116.089920       229.891327               0.       60.9834709
               21                1       237.134491       175.146805               0.      -115.145332
               21                2       197.958191       166.411804               0.      -127.149429
               21                3       181.681686       145.724014               0.      -111.322044
               21                4       142.797012       134.802826               0.      -120.417618
               22                1       123.301422       149.950775               0.      -119.696968
               22                2       150.344116       192.970047               0.      -124.051277
               22                3       129.245331       184.488373               0.      -110.259140
               22                4       154.085907       226.223572               0.      -113.081696
               23                1       81.9875793       229.015854               0.      -55.6501465
               23                2       119.951057       258.163239               0.      -23.8785419
               23                3       53.7607498       165.962616               0.      -60.5451355
               23                4       88.1131363       192.700363               0.      -32.4687805
               24                1       109.501793       180.177628               0.      -24.9606514
               24                2       107.283539       164.457901               0.      -13.4700727
               24                3       150.970322       182.974548               0.      -31.8645763
               24                4       152.623535       165.057144               0.      -23.5932961
               25                1       164.800278       77.1969528               0.      -40.9780617
               25                2       248.201111       120.545197               0.      -34.8878250
               25                3       144.426315       71.8271942               0.      -64.6539536
               25                4       229.891327       116.089920               0.      -60.9834709
               26                1       175.146805       237.134491               0.       115.145332
               26                2       166.411804       197.958191               0.       127.149429
               26                3       145.724014       181.681686               0.       111.322044
               26                4       134.802826       142.797012               0.       120.417618
               27                1       149.950775       123.301422               0.       119.696968
               27                2       192.970047       150.344116               0.       124.051277
               27                3       184.488373       129.245331               0.       110.259140
               27                4       226.223572       154.085907               0.       113.081696
               28                1       229.015854       81.9875793               0.       55.6501465
               28                2       258.163239       119.951057               0.       23.8785419
               28                3       165.962616       53.7607498               0.       60.5451355
               28                4       192.700363       88.1131363               0.       32.4687805
               29                1       180.177628       109.501793               0.       24.9606514
               29                2       164.457901       107.283539               0.       13.4700727
               29                3       182.974548       150.970322               0.       31.8645763
               29                4       165.057144       152.623535               0.       23.5932961
               30                1       77.1969528       164.800278               0.       40.9780617
               30                2       120.545197       248.201111               0.       34.8878250
               30                3       71.8271942       144.426315               0.       64.6539536
               30                4       116.089920       229.891327               0.       60.9834709
               31                1       154.085907       226.223572               0.       113.081696
               31                2       150.344116       192.970047               0.       124.051277
               31                3       129.245331       184.488373               0.       110.259140
               31                4       123.301422       149.950775               0.       119.696968
               32                1       142.797012       134.802826               0.       120.417618
               32                2       197.958191       166.411804               0.       127.149429
               32                3       181.681686       145.724014               0.       111.322044
               32                4       237.134491       175.146805               0.       115.145332
               33                1       229.891327       116.089920               0.       60.9834709
               33                2       248.201111       120.545197               0.       34.8878250
               33                3       144.426315       71.8271942               0.       64.6539536
               33                4       164.800278       77.1969528               0.       40.9780617
               34                1       152.623535       165.057144               0.       23.5932961
               34                2       107.283539       164.457901               0.       13.4700727
               34                3       150.970322       182.974548               0.       31.8645763
               34                4       109.501793       180.177628               0.       24.9606514
               35                1       88.1131363       192.700363               0.       32.4687805
               35                2       119.951057       258.163239               0.       23.8785419
               35                3       53.7607498       165.962616               0.       60.5451355
               35                4       81.9875793       229.015854               0.       55.6501465
               36                1       226.223572       154.085907               0.      -113.081696
               36                2       192.970047       150.344116               0.      -124.051277
               36                3       184.488373       129.245331               0.      -110.259140
               36                4       149.950775       123.301422               0.      -119.696968
               37                1       134.802826       142.797012               0.      -120.417618
               37                2       166.411804       197.958191               0.      -127.149429
               37                3       145.724014       181.681686               0.      -111.322044
               37                4       175.146805       237.134491               0.      -115.145332
               38                1       116.089920       229.891327               0.      -60.9834709
               38                2       120.545197       248.201111               0.      -34.8878250
               38                3       71.8271942       144.426315               0.      -64.6539536
               38                4       77.1969528       164.800278               0.      -40.9780617
               39                1       165.057144       152.623535               0.      -23.5932961
               39                2       164.457901       107.283539               0.      -13.4700727
               39                3       182.974548       150.970322               0.      -31.8645763
               39                4       180.177628       109.501793               0.      -24.9606514
               40                1       192.700363       88.1131363               0.      -32.4687805
               40                2       258.163239       119.951057               0.      -23.8785419
               40                3       165.962616       53.7607498               0.      -60.5451355
               40                4       229.015854       81.9875793               0.      -55.6501465


********************************************************************************
Field Output Report, written Thu Apr 24 16:16:22 2025

Source 1
---------

   ODB: C:/lnms/Vid/CrossHoleSym/CrossHoleSymU.odb
   Step: loading
   Frame: Increment      5: Step Time =   0.5000

Loc 1 : Integration point values from source 1

Output sorted by column "Element Label".

Field Output reported at integration points for region: SPECIMEN-1.Region_1

          Element              Int            S.S11            S.S22            S.S33            S.S12
            Label               Pt           @Loc 1           @Loc 1           @Loc 1           @Loc 1
-------------------------------------------------------------------------------------------------------
                1                1       257.277588       174.906693               0.      -129.402130
                1                2       218.140656       169.462708               0.      -142.411804
                1                3       208.234100       145.846939               0.      -124.777336
                1                4       168.012314       137.996292               0.      -135.794693
                2                1       150.576431       159.892471               0.      -136.642441
                2                2       187.847946       223.331406               0.      -145.832870
                2                3       163.128845       204.632431               0.      -126.413925
                2                4       197.911102       268.775238               0.      -132.118271
                3                1       129.517807       259.436279               0.      -69.9476547
                3                2       135.332977       280.775513               0.      -39.7247696
                3                3       76.5769119       157.165024               0.      -72.5712662
                3                4       83.2369308       180.383896               0.      -45.5646706
                4                1       182.808487       169.419449               0.      -26.2400150
                4                2       178.873001       116.972031               0.      -14.7485104
                4                3       204.857346       169.290222               0.      -35.6876831
                4                4       199.248138       121.257263               0.      -27.6329632
                5                1       214.252670       97.3829956               0.      -36.3072433
                5                2       292.325043       135.211716               0.      -27.0151558
                5                3       182.652908       56.5757904               0.      -68.2678986
                5                4       257.413849       89.5035858               0.      -63.5888557
                6                1       268.775238       197.911102               0.      -132.118271
                6                2       223.331406       187.847946               0.      -145.832870
                6                3       204.632431       163.128845               0.      -126.413925
                6                4       159.892471       150.576431               0.      -136.642441
                7                1       137.996292       168.012314               0.      -135.794693
                7                2       169.462708       218.140656               0.      -142.411804
                7                3       145.846939       208.234100               0.      -124.777336
                7                4       174.906693       257.277588               0.      -129.402130
                8                1       89.5035858       257.413849               0.      -63.5888557
                8                2       135.211716       292.325043               0.      -27.0151558
                8                3       56.5757904       182.652908               0.      -68.2678986
                8                4       97.3829956       214.252670               0.      -36.3072433
                9                1       121.257263       199.248138               0.      -27.6329632
                9                2       116.972031       178.873001               0.      -14.7485104
                9                3       169.290222       204.857346               0.      -35.6876831
                9                4       169.419449       182.808487               0.      -26.2400150
               10                1       180.383896       83.2369308               0.      -45.5646706
               10                2       280.775513       135.332977               0.      -39.7247696
               10                3       157.165024       76.5769119               0.      -72.5712662
               10                4       259.436279       129.517807               0.      -69.9476547
               11                1       174.906693       257.277588               0.       129.402130
               11                2       169.462708       218.140656               0.       142.411804
               11                3       145.846939       208.234100               0.       124.777336
               11                4       137.996292       168.012314               0.       135.794693
               12                1       159.892471       150.576431               0.       136.642441
               12                2       223.331406       187.847946               0.       145.832870
               12                3       204.632431       163.128845               0.       126.413925
               12                4       268.775238       197.911102               0.       132.118271
               13                1       259.436279       129.517807               0.       69.9476547
               13                2       280.775513       135.332977               0.       39.7247696
               13                3       157.165024       76.5769119               0.       72.5712662
               13                4       180.383896       83.2369308               0.       45.5646706
               14                1       169.419449       182.808487               0.       26.2400150
               14                2       116.972031       178.873001               0.       14.7485104
               14                3       169.290222       204.857346               0.       35.6876831
               14                4       121.257263       199.248138               0.       27.6329632
               15                1       97.3829956       214.252670               0.       36.3072433
               15                2       135.211716       292.325043               0.       27.0151558
               15                3       56.5757904       182.652908               0.       68.2678986
               15                4       89.5035858       257.413849               0.       63.5888557
               16                1       197.911102       268.775238               0.       132.118271
               16                2       187.847946       223.331406               0.       145.832870
               16                3       163.128845       204.632431               0.       126.413925
               16                4       150.576431       159.892471               0.       136.642441
               17                1       168.012314       137.996292               0.       135.794693
               17                2       218.140656       169.462708               0.       142.411804
               17                3       208.234100       145.846939               0.       124.777336
               17                4       257.277588       174.906693               0.       129.402130
               18                1       257.413849       89.5035858               0.       63.5888557
               18                2       292.325043       135.211716               0.       27.0151558
               18                3       182.652908       56.5757904               0.       68.2678986
               18                4       214.252670       97.3829956               0.       36.3072433
               19                1       199.248138       121.257263               0.       27.6329632
               19                2       178.873001       116.972031               0.       14.7485104
               19                3       204.857346       169.290222               0.       35.6876831
               19                4       182.808487       169.419449               0.       26.2400150
               20                1       83.2369308       180.383896               0.       45.5646706
               20                2       135.332977       280.775513               0.       39.7247696
               20                3       76.5769119       157.165024               0.       72.5712662
               20                4       129.517807       259.436279               0.       69.9476547
               21                1       268.775238       197.911102               0.      -132.118271
               21                2       223.331406       187.847946               0.      -145.832870
               21                3       204.632431       163.128845               0.      -126.413925
               21                4       159.892471       150.576431               0.      -136.642441
               22                1       137.996292       168.012314               0.      -135.794693
               22                2       169.462708       218.140656               0.      -142.411804
               22                3       145.846939       208.234100               0.      -124.777336
               22                4       174.906693       257.277588               0.      -129.402130
               23                1       89.5035858       257.413849               0.      -63.5888557
               23                2       135.211716       292.325043               0.      -27.0151558
               23                3       56.5757904       182.652908               0.      -68.2678986
               23                4       97.3829956       214.252670               0.      -36.3072433
               24                1       121.257263       199.248138               0.      -27.6329632
               24                2       116.972031       178.873001               0.      -14.7485104
               24                3       169.290222       204.857346               0.      -35.6876831
               24                4       169.419449       182.808487               0.      -26.2400150
               25                1       180.383896       83.2369308               0.      -45.5646706
               25                2       280.775513       135.332977               0.      -39.7247696
               25                3       157.165024       76.5769119               0.      -72.5712662
               25                4       259.436279       129.517807               0.      -69.9476547
               26                1       197.911102       268.775238               0.       132.118271
               26                2       187.847946       223.331406               0.       145.832870
               26                3       163.128845       204.632431               0.       126.413925
               26                4       150.576431       159.892471               0.       136.642441
               27                1       168.012314       137.996292               0.       135.794693
               27                2       218.140656       169.462708               0.       142.411804
               27                3       208.234100       145.846939               0.       124.777336
               27                4       257.277588       174.906693               0.       129.402130
               28                1       257.413849       89.5035858               0.       63.5888557
               28                2       292.325043       135.211716               0.       27.0151558
               28                3       182.652908       56.5757904               0.       68.2678986
               28                4       214.252670       97.3829956               0.       36.3072433
               29                1       199.248138       121.257263               0.       27.6329632
               29                2       178.873001       116.972031               0.       14.7485104
               29                3       204.857346       169.290222               0.       35.6876831
               29                4       182.808487       169.419449               0.       26.2400150
               30                1       83.2369308       180.383896               0.       45.5646706
               30                2       135.332977       280.775513               0.       39.7247696
               30                3       76.5769119       157.165024               0.       72.5712662
               30                4       129.517807       259.436279               0.       69.9476547
               31                1       174.906693       257.277588               0.       129.402130
               31                2       169.462708       218.140656               0.       142.411804
               31                3       145.846939       208.234100               0.       124.777336
               31                4       137.996292       168.012314               0.       135.794693
               32                1       159.892471       150.576431               0.       136.642441
               32                2       223.331406       187.847946               0.       145.832870
               32                3       204.632431       163.128845               0.       126.413925
               32                4       268.775238       197.911102               0.       132.118271
               33                1       259.436279       129.517807               0.       69.9476547
               33                2       280.775513       135.332977               0.       39.7247696
               33                3       157.165024       76.5769119               0.       72.5712662
               33                4       180.383896       83.2369308               0.       45.5646706
               34                1       169.419449       182.808487               0.       26.2400150
               34                2       116.972031       178.873001               0.       14.7485104
               34                3       169.290222       204.857346               0.       35.6876831
               34                4       121.257263       199.248138               0.       27.6329632
               35                1       97.3829956       214.252670               0.       36.3072433
               35                2       135.211716       292.325043               0.       27.0151558
               35                3       56.5757904       182.652908               0.       68.2678986
               35                4       89.5035858       257.413849               0.       63.5888557
               36                1       257.277588       174.906693               0.      -129.402130
               36                2       218.140656       169.462708               0.      -142.411804
               36                3       208.234100       145.846939               0.      -124.777336
               36                4       168.012314       137.996292               0.      -135.794693
               37                1       150.576431       159.892471               0.      -136.642441
               37                2       187.847946       223.331406               0.      -145.832870
               37                3       163.128845       204.632431               0.      -126.413925
               37                4       197.911102       268.775238               0.      -132.118271
               38                1       129.517807       259.436279               0.      -69.9476547
               38                2       135.332977       280.775513               0.      -39.7247696
               38                3       76.5769119       157.165024               0.      -72.5712662
               38                4       83.2369308       180.383896               0.      -45.5646706
               39                1       182.808487       169.419449               0.      -26.2400150
               39                2       178.873001       116.972031               0.      -14.7485104
               39                3       204.857346       169.290222               0.      -35.6876831
               39                4       199.248138       121.257263               0.      -27.6329632
               40                1       214.252670       97.3829956               0.      -36.3072433
               40                2       292.325043       135.211716               0.      -27.0151558
               40                3       182.652908       56.5757904               0.      -68.2678986
               40                4       257.413849       89.5035858               0.      -63.5888557


********************************************************************************
Field Output Report, written Thu Apr 24 16:16:24 2025

Source 1
---------

   ODB: C:/lnms/Vid/CrossHoleSym/CrossHoleSymU.odb
   Step: loading
   Frame: Increment      6: Step Time =   0.6000

Loc 1 : Integration point values from source 1

Output sorted by column "Element Label".

Field Output reported at integration points for region: SPECIMEN-1.Region_1

          Element              Int            S.S11            S.S22            S.S33            S.S12
            Label               Pt           @Loc 1           @Loc 1           @Loc 1           @Loc 1
-------------------------------------------------------------------------------------------------------
                1                1       287.440430       195.338745               0.      -145.556503
                1                2       242.240128       187.652374               0.      -160.670334
                1                3       231.633774       162.541962               0.      -139.172043
                1                4       185.638870       152.356384               0.      -151.819229
                2                1       165.963562       176.509720               0.      -152.831665
                2                2       208.529282       247.669128               0.      -164.458710
                2                3       180.213043       227.130844               0.      -141.472046
                2                4       220.026352       299.446075               0.      -149.042786
                3                1       141.882324       287.106689               0.      -78.7865219
                3                2       149.201035       311.692444               0.      -44.4058723
                3                3       80.4972305       168.389740               0.      -80.5523911
                3                4       88.6890564       194.947067               0.      -50.1414185
                4                1       199.500092       185.303802               0.      -28.8492298
                4                2       192.463120       126.158913               0.      -16.0064526
                4                3       225.473221       186.558548               0.      -39.3491364
                4                4       217.259293       132.370438               0.      -30.1640396
                5                1       234.514969       105.993988               0.      -40.0008736
                5                2       324.447876       149.477036               0.      -29.9591751
                5                3       197.593842       58.4553070               0.      -75.9667511
                5                4       283.642761       95.9638214               0.      -71.3809280
                6                1       299.446075       220.026352               0.      -149.042786
                6                2       247.669128       208.529282               0.      -164.458710
                6                3       227.130844       180.213043               0.      -141.472046
                6                4       176.509720       165.963562               0.      -152.831665
                7                1       152.356384       185.638870               0.      -151.819229
                7                2       187.652374       242.240128               0.      -160.670334
                7                3       162.541962       231.633774               0.      -139.172043
                7                4       195.338745       287.440430               0.      -145.556503
                8                1       95.9638214       283.642761               0.      -71.3809280
                8                2       149.477036       324.447876               0.      -29.9591751
                8                3       58.4553070       197.593842               0.      -75.9667511
                8                4       105.993988       234.514969               0.      -40.0008736
                9                1       132.370438       217.259293               0.      -30.1640396
                9                2       126.158913       192.463120               0.      -16.0064526
                9                3       186.558548       225.473221               0.      -39.3491364
                9                4       185.303802       199.500092               0.      -28.8492298
               10                1       194.947067       88.6890564               0.      -50.1414185
               10                2       311.692444       149.201035               0.      -44.4058723
               10                3       168.389740       80.4972305               0.      -80.5523911
               10                4       287.106689       141.882324               0.      -78.7865219
               11                1       195.338745       287.440430               0.       145.556503
               11                2       187.652374       242.240128               0.       160.670334
               11                3       162.541962       231.633774               0.       139.172043
               11                4       152.356384       185.638870               0.       151.819229
               12                1       176.509720       165.963562               0.       152.831665
               12                2       247.669128       208.529282               0.       164.458710
               12                3       227.130844       180.213043               0.       141.472046
               12                4       299.446075       220.026352               0.       149.042786
               13                1       287.106689       141.882324               0.       78.7865219
               13                2       311.692444       149.201035               0.       44.4058723
               13                3       168.389740       80.4972305               0.       80.5523911
               13                4       194.947067       88.6890564               0.       50.1414185
               14                1       185.303802       199.500092               0.       28.8492298
               14                2       126.158913       192.463120               0.       16.0064526
               14                3       186.558548       225.473221               0.       39.3491364
               14                4       132.370438       217.259293               0.       30.1640396
               15                1       105.993988       234.514969               0.       40.0008736
               15                2       149.477036       324.447876               0.       29.9591751
               15                3       58.4553070       197.593842               0.       75.9667511
               15                4       95.9638214       283.642761               0.       71.3809280
               16                1       220.026352       299.446075               0.       149.042786
               16                2       208.529282       247.669128               0.       164.458710
               16                3       180.213043       227.130844               0.       141.472046
               16                4       165.963562       176.509720               0.       152.831665
               17                1       185.638870       152.356384               0.       151.819229
               17                2       242.240128       187.652374               0.       160.670334
               17                3       231.633774       162.541962               0.       139.172043
               17                4       287.440430       195.338745               0.       145.556503
               18                1       283.642761       95.9638214               0.       71.3809280
               18                2       324.447876       149.477036               0.       29.9591751
               18                3       197.593842       58.4553070               0.       75.9667511
               18                4       234.514969       105.993988               0.       40.0008736
               19                1       217.259293       132.370438               0.       30.1640396
               19                2       192.463120       126.158913               0.       16.0064526
               19                3       225.473221       186.558548               0.       39.3491364
               19                4       199.500092       185.303802               0.       28.8492298
               20                1       88.6890564       194.947067               0.       50.1414185
               20                2       149.201035       311.692444               0.       44.4058723
               20                3       80.4972305       168.389740               0.       80.5523911
               20                4       141.882324       287.106689               0.       78.7865219
               21                1       299.446075       220.026352               0.      -149.042786
               21                2       247.669128       208.529282               0.      -164.458710
               21                3       227.130844       180.213043               0.      -141.472046
               21                4       176.509720       165.963562               0.      -152.831665
               22                1       152.356384       185.638870               0.      -151.819229
               22                2       187.652374       242.240128               0.      -160.670334
               22                3       162.541962       231.633774               0.      -139.172043
               22                4       195.338745       287.440430               0.      -145.556503
               23                1       95.9638214       283.642761               0.      -71.3809280
               23                2       149.477036       324.447876               0.      -29.9591751
               23                3       58.4553070       197.593842               0.      -75.9667511
               23                4       105.993988       234.514969               0.      -40.0008736
               24                1       132.370438       217.259293               0.      -30.1640396
               24                2       126.158913       192.463120               0.      -16.0064526
               24                3       186.558548       225.473221               0.      -39.3491364
               24                4       185.303802       199.500092               0.      -28.8492298
               25                1       194.947067       88.6890564               0.      -50.1414185
               25                2       311.692444       149.201035               0.      -44.4058723
               25                3       168.389740       80.4972305               0.      -80.5523911
               25                4       287.106689       141.882324               0.      -78.7865219
               26                1       220.026352       299.446075               0.       149.042786
               26                2       208.529282       247.669128               0.       164.458710
               26                3       180.213043       227.130844               0.       141.472046
               26                4       165.963562       176.509720               0.       152.831665
               27                1       185.638870       152.356384               0.       151.819229
               27                2       242.240128       187.652374               0.       160.670334
               27                3       231.633774       162.541962               0.       139.172043
               27                4       287.440430       195.338745               0.       145.556503
               28                1       283.642761       95.9638214               0.       71.3809280
               28                2       324.447876       149.477036               0.       29.9591751
               28                3       197.593842       58.4553070               0.       75.9667511
               28                4       234.514969       105.993988               0.       40.0008736
               29                1       217.259293       132.370438               0.       30.1640396
               29                2       192.463120       126.158913               0.       16.0064526
               29                3       225.473221       186.558548               0.       39.3491364
               29                4       199.500092       185.303802               0.       28.8492298
               30                1       88.6890564       194.947067               0.       50.1414185
               30                2       149.201035       311.692444               0.       44.4058723
               30                3       80.4972305       168.389740               0.       80.5523911
               30                4       141.882324       287.106689               0.       78.7865219
               31                1       195.338745       287.440430               0.       145.556503
               31                2       187.652374       242.240128               0.       160.670334
               31                3       162.541962       231.633774               0.       139.172043
               31                4       152.356384       185.638870               0.       151.819229
               32                1       176.509720       165.963562               0.       152.831665
               32                2       247.669128       208.529282               0.       164.458710
               32                3       227.130844       180.213043               0.       141.472046
               32                4       299.446075       220.026352               0.       149.042786
               33                1       287.106689       141.882324               0.       78.7865219
               33                2       311.692444       149.201035               0.       44.4058723
               33                3       168.389740       80.4972305               0.       80.5523911
               33                4       194.947067       88.6890564               0.       50.1414185
               34                1       185.303802       199.500092               0.       28.8492298
               34                2       126.158913       192.463120               0.       16.0064526
               34                3       186.558548       225.473221               0.       39.3491364
               34                4       132.370438       217.259293               0.       30.1640396
               35                1       105.993988       234.514969               0.       40.0008736
               35                2       149.477036       324.447876               0.       29.9591751
               35                3       58.4553070       197.593842               0.       75.9667511
               35                4       95.9638214       283.642761               0.       71.3809280
               36                1       287.440430       195.338745               0.      -145.556503
               36                2       242.240128       187.652374               0.      -160.670334
               36                3       231.633774       162.541962               0.      -139.172043
               36                4       185.638870       152.356384               0.      -151.819229
               37                1       165.963562       176.509720               0.      -152.831665
               37                2       208.529282       247.669128               0.      -164.458710
               37                3       180.213043       227.130844               0.      -141.472046
               37                4       220.026352       299.446075               0.      -149.042786
               38                1       141.882324       287.106689               0.      -78.7865219
               38                2       149.201035       311.692444               0.      -44.4058723
               38                3       80.4972305       168.389740               0.      -80.5523911
               38                4       88.6890564       194.947067               0.      -50.1414185
               39                1       199.500092       185.303802               0.      -28.8492298
               39                2       192.463120       126.158913               0.      -16.0064526
               39                3       225.473221       186.558548               0.      -39.3491364
               39                4       217.259293       132.370438               0.      -30.1640396
               40                1       234.514969       105.993988               0.      -40.0008736
               40                2       324.447876       149.477036               0.      -29.9591751
               40                3       197.593842       58.4553070               0.      -75.9667511
               40                4       283.642761       95.9638214               0.      -71.3809280


********************************************************************************
Field Output Report, written Thu Apr 24 16:16:27 2025

Source 1
---------

   ODB: C:/lnms/Vid/CrossHoleSym/CrossHoleSymU.odb
   Step: loading
   Frame: Increment      7: Step Time =   0.7000

Loc 1 : Integration point values from source 1

Output sorted by column "Element Label".

Field Output reported at integration points for region: SPECIMEN-1.Region_1

          Element              Int            S.S11            S.S22            S.S33            S.S12
            Label               Pt           @Loc 1           @Loc 1           @Loc 1           @Loc 1
-------------------------------------------------------------------------------------------------------
                1                1       316.807312       215.417496               0.      -161.524414
                1                2       265.361420       205.034409               0.      -178.800980
                1                3       254.739273       179.278915               0.      -153.443832
                1                4       202.854843       166.404709               0.      -167.774109
                2                1       180.997208       192.727036               0.      -168.974365
                2                2       228.515686       271.061768               0.      -183.003815
                2                3       196.969589       249.233810               0.      -156.491516
                2                4       241.505539       329.209137               0.      -165.908508
                3                1       153.297867       313.039337               0.      -87.4824295
                3                2       162.222198       341.055725               0.      -48.9209099
                3                3       83.6725159       178.208939               0.      -88.5393219
                3                4       93.5890121       208.543747               0.      -54.6682396
                4                1       215.156082       200.277954               0.      -31.3898239
                4                2       205.236374       134.838547               0.      -17.2293968
                4                3       244.844757       202.796356               0.      -42.8359070
                4                4       234.222336       142.848328               0.      -32.5536346
                5                1       253.527313       113.967972               0.      -43.5511589
                5                2       354.659515       162.810577               0.      -32.7241325
                5                3       210.886688       59.4628410               0.      -83.6029129
                5                4       307.858307       101.450531               0.      -79.0192566
                6                1       329.209137       241.505539               0.      -165.908508
                6                2       271.061768       228.515686               0.      -183.003815
                6                3       249.233810       196.969589               0.      -156.491516
                6                4       192.727036       180.997208               0.      -168.974365
                7                1       166.404709       202.854843               0.      -167.774109
                7                2       205.034409       265.361420               0.      -178.800980
                7                3       179.278915       254.739273               0.      -153.443832
                7                4       215.417496       316.807312               0.      -161.524414
                8                1       101.450531       307.858307               0.      -79.0192566
                8                2       162.810577       354.659515               0.      -32.7241325
                8                3       59.4628410       210.886688               0.      -83.6029129
                8                4       113.967972       253.527313               0.      -43.5511589
                9                1       142.848328       234.222336               0.      -32.5536346
                9                2       134.838547       205.236374               0.      -17.2293968
                9                3       202.796356       244.844757               0.      -42.8359070
                9                4       200.277954       215.156082               0.      -31.3898239
               10                1       208.543747       93.5890121               0.      -54.6682396
               10                2       341.055725       162.222198               0.      -48.9209099
               10                3       178.208939       83.6725159               0.      -88.5393219
               10                4       313.039337       153.297867               0.      -87.4824295
               11                1       215.417496       316.807312               0.       161.524414
               11                2       205.034409       265.361420               0.       178.800980
               11                3       179.278915       254.739273               0.       153.443832
               11                4       166.404709       202.854843               0.       167.774109
               12                1       192.727036       180.997208               0.       168.974365
               12                2       271.061768       228.515686               0.       183.003815
               12                3       249.233810       196.969589               0.       156.491516
               12                4       329.209137       241.505539               0.       165.908508
               13                1       313.039337       153.297867               0.       87.4824295
               13                2       341.055725       162.222198               0.       48.9209099
               13                3       178.208939       83.6725159               0.       88.5393219
               13                4       208.543747       93.5890121               0.       54.6682396
               14                1       200.277954       215.156082               0.       31.3898239
               14                2       134.838547       205.236374               0.       17.2293968
               14                3       202.796356       244.844757               0.       42.8359070
               14                4       142.848328       234.222336               0.       32.5536346
               15                1       113.967972       253.527313               0.       43.5511589
               15                2       162.810577       354.659515               0.       32.7241325
               15                3       59.4628410       210.886688               0.       83.6029129
               15                4       101.450531       307.858307               0.       79.0192566
               16                1       241.505539       329.209137               0.       165.908508
               16                2       228.515686       271.061768               0.       183.003815
               16                3       196.969589       249.233810               0.       156.491516
               16                4       180.997208       192.727036               0.       168.974365
               17                1       202.854843       166.404709               0.       167.774109
               17                2       265.361420       205.034409               0.       178.800980
               17                3       254.739273       179.278915               0.       153.443832
               17                4       316.807312       215.417496               0.       161.524414
               18                1       307.858307       101.450531               0.       79.0192566
               18                2       354.659515       162.810577               0.       32.7241325
               18                3       210.886688       59.4628410               0.       83.6029129
               18                4       253.527313       113.967972               0.       43.5511589
               19                1       234.222336       142.848328               0.       32.5536346
               19                2       205.236374       134.838547               0.       17.2293968
               19                3       244.844757       202.796356               0.       42.8359070
               19                4       215.156082       200.277954               0.       31.3898239
               20                1       93.5890121       208.543747               0.       54.6682396
               20                2       162.222198       341.055725               0.       48.9209099
               20                3       83.6725159       178.208939               0.       88.5393219
               20                4       153.297867       313.039337               0.       87.4824295
               21                1       329.209137       241.505539               0.      -165.908508
               21                2       271.061768       228.515686               0.      -183.003815
               21                3       249.233810       196.969589               0.      -156.491516
               21                4       192.727036       180.997208               0.      -168.974365
               22                1       166.404709       202.854843               0.      -167.774109
               22                2       205.034409       265.361420               0.      -178.800980
               22                3       179.278915       254.739273               0.      -153.443832
               22                4       215.417496       316.807312               0.      -161.524414
               23                1       101.450531       307.858307               0.      -79.0192566
               23                2       162.810577       354.659515               0.      -32.7241325
               23                3       59.4628410       210.886688               0.      -83.6029129
               23                4       113.967972       253.527313               0.      -43.5511589
               24                1       142.848328       234.222336               0.      -32.5536346
               24                2       134.838547       205.236374               0.      -17.2293968
               24                3       202.796356       244.844757               0.      -42.8359070
               24                4       200.277954       215.156082               0.      -31.3898239
               25                1       208.543747       93.5890121               0.      -54.6682396
               25                2       341.055725       162.222198               0.      -48.9209099
               25                3       178.208939       83.6725159               0.      -88.5393219
               25                4       313.039337       153.297867               0.      -87.4824295
               26                1       241.505539       329.209137               0.       165.908508
               26                2       228.515686       271.061768               0.       183.003815
               26                3       196.969589       249.233810               0.       156.491516
               26                4       180.997208       192.727036               0.       168.974365
               27                1       202.854843       166.404709               0.       167.774109
               27                2       265.361420       205.034409               0.       178.800980
               27                3       254.739273       179.278915               0.       153.443832
               27                4       316.807312       215.417496               0.       161.524414
               28                1       307.858307       101.450531               0.       79.0192566
               28                2       354.659515       162.810577               0.       32.7241325
               28                3       210.886688       59.4628410               0.       83.6029129
               28                4       253.527313       113.967972               0.       43.5511589
               29                1       234.222336       142.848328               0.       32.5536346
               29                2       205.236374       134.838547               0.       17.2293968
               29                3       244.844757       202.796356               0.       42.8359070
               29                4       215.156082       200.277954               0.       31.3898239
               30                1       93.5890121       208.543747               0.       54.6682396
               30                2       162.222198       341.055725               0.       48.9209099
               30                3       83.6725159       178.208939               0.       88.5393219
               30                4       153.297867       313.039337               0.       87.4824295
               31                1       215.417496       316.807312               0.       161.524414
               31                2       205.034409       265.361420               0.       178.800980
               31                3       179.278915       254.739273               0.       153.443832
               31                4       166.404709       202.854843               0.       167.774109
               32                1       192.727036       180.997208               0.       168.974365
               32                2       271.061768       228.515686               0.       183.003815
               32                3       249.233810       196.969589               0.       156.491516
               32                4       329.209137       241.505539               0.       165.908508
               33                1       313.039337       153.297867               0.       87.4824295
               33                2       341.055725       162.222198               0.       48.9209099
               33                3       178.208939       83.6725159               0.       88.5393219
               33                4       208.543747       93.5890121               0.       54.6682396
               34                1       200.277954       215.156082               0.       31.3898239
               34                2       134.838547       205.236374               0.       17.2293968
               34                3       202.796356       244.844757               0.       42.8359070
               34                4       142.848328       234.222336               0.       32.5536346
               35                1       113.967972       253.527313               0.       43.5511589
               35                2       162.810577       354.659515               0.       32.7241325
               35                3       59.4628410       210.886688               0.       83.6029129
               35                4       101.450531       307.858307               0.       79.0192566
               36                1       316.807312       215.417496               0.      -161.524414
               36                2       265.361420       205.034409               0.      -178.800980
               36                3       254.739273       179.278915               0.      -153.443832
               36                4       202.854843       166.404709               0.      -167.774109
               37                1       180.997208       192.727036               0.      -168.974365
               37                2       228.515686       271.061768               0.      -183.003815
               37                3       196.969589       249.233810               0.      -156.491516
               37                4       241.505539       329.209137               0.      -165.908508
               38                1       153.297867       313.039337               0.      -87.4824295
               38                2       162.222198       341.055725               0.      -48.9209099
               38                3       83.6725159       178.208939               0.      -88.5393219
               38                4       93.5890121       208.543747               0.      -54.6682396
               39                1       215.156082       200.277954               0.      -31.3898239
               39                2       205.236374       134.838547               0.      -17.2293968
               39                3       244.844757       202.796356               0.      -42.8359070
               39                4       234.222336       142.848328               0.      -32.5536346
               40                1       253.527313       113.967972               0.      -43.5511589
               40                2       354.659515       162.810577               0.      -32.7241325
               40                3       210.886688       59.4628410               0.      -83.6029129
               40                4       307.858307       101.450531               0.      -79.0192566


********************************************************************************
Field Output Report, written Thu Apr 24 16:16:29 2025

Source 1
---------

   ODB: C:/lnms/Vid/CrossHoleSym/CrossHoleSymU.odb
   Step: loading
   Frame: Increment      8: Step Time =   0.8000

Loc 1 : Integration point values from source 1

Output sorted by column "Element Label".

Field Output reported at integration points for region: SPECIMEN-1.Region_1

          Element              Int            S.S11            S.S22            S.S33            S.S12
            Label               Pt           @Loc 1           @Loc 1           @Loc 1           @Loc 1
-------------------------------------------------------------------------------------------------------
                1                1       345.491516       235.209106               0.      -177.276611
                1                2       287.601410       221.695847               0.      -196.784592
                1                3       277.620270       196.071732               0.      -167.574341
                1                4       219.699234       180.169174               0.      -183.653580
                2                1       195.721466       208.609634               0.      -185.054977
                2                2       247.869888       293.602020               0.      -201.443008
                2                3       213.428635       271.004730               0.      -171.453476
                2                4       262.392914       358.148499               0.      -182.689255
                3                1       163.855591       337.352051               0.      -96.0200806
                3                2       174.469818       368.965851               0.      -53.2448006
                3                3       86.1468964       186.668854               0.      -96.5082321
                3                4       97.9727783       221.219772               0.      -59.1176758
                4                1       229.814224       214.348495               0.      -33.8374825
                4                2       217.212341       143.009781               0.      -18.4053955
                4                3       263.007599       218.025803               0.      -46.1367111
                4                4       250.158905       152.700455               0.      -34.7995224
                5                1       271.326538       121.321526               0.      -46.9644432
                5                2       383.068512       175.266388               0.      -35.3147240
                5                3       222.569016       59.6201210               0.      -91.1741409
                5                4       330.173462       106.024773               0.      -86.5110092
                6                1       358.148499       262.392914               0.      -182.689255
                6                2       293.602020       247.869888               0.      -201.443008
                6                3       271.004730       213.428635               0.      -171.453476
                6                4       208.609634       195.721466               0.      -185.054977
                7                1       180.169174       219.699234               0.      -183.653580
                7                2       221.695847       287.601410               0.      -196.784592
                7                3       196.071732       277.620270               0.      -167.574341
                7                4       235.209106       345.491516               0.      -177.276611
                8                1       106.024773       330.173462               0.      -86.5110092
                8                2       175.266388       383.068512               0.      -35.3147240
                8                3       59.6201210       222.569016               0.      -91.1741409
                8                4       121.321526       271.326538               0.      -46.9644432
                9                1       152.700455       250.158905               0.      -34.7995224
                9                2       143.009781       217.212341               0.      -18.4053955
                9                3       218.025803       263.007599               0.      -46.1367111
                9                4       214.348495       229.814224               0.      -33.8374825
               10                1       221.219772       97.9727783               0.      -59.1176758
               10                2       368.965851       174.469818               0.      -53.2448006
               10                3       186.668854       86.1468964               0.      -96.5082321
               10                4       337.352051       163.855591               0.      -96.0200806
               11                1       235.209106       345.491516               0.       177.276611
               11                2       221.695847       287.601410               0.       196.784592
               11                3       196.071732       277.620270               0.       167.574341
               11                4       180.169174       219.699234               0.       183.653580
               12                1       208.609634       195.721466               0.       185.054977
               12                2       293.602020       247.869888               0.       201.443008
               12                3       271.004730       213.428635               0.       171.453476
               12                4       358.148499       262.392914               0.       182.689255
               13                1       337.352051       163.855591               0.       96.0200806
               13                2       368.965851       174.469818               0.       53.2448006
               13                3       186.668854       86.1468964               0.       96.5082321
               13                4       221.219772       97.9727783               0.       59.1176758
               14                1       214.348495       229.814224               0.       33.8374825
               14                2       143.009781       217.212341               0.       18.4053955
               14                3       218.025803       263.007599               0.       46.1367111
               14                4       152.700455       250.158905               0.       34.7995224
               15                1       121.321526       271.326538               0.       46.9644432
               15                2       175.266388       383.068512               0.       35.3147240
               15                3       59.6201210       222.569016               0.       91.1741409
               15                4       106.024773       330.173462               0.       86.5110092
               16                1       262.392914       358.148499               0.       182.689255
               16                2       247.869888       293.602020               0.       201.443008
               16                3       213.428635       271.004730               0.       171.453476
               16                4       195.721466       208.609634               0.       185.054977
               17                1       219.699234       180.169174               0.       183.653580
               17                2       287.601410       221.695847               0.       196.784592
               17                3       277.620270       196.071732               0.       167.574341
               17                4       345.491516       235.209106               0.       177.276611
               18                1       330.173462       106.024773               0.       86.5110092
               18                2       383.068512       175.266388               0.       35.3147240
               18                3       222.569016       59.6201210               0.       91.1741409
               18                4       271.326538       121.321526               0.       46.9644432
               19                1       250.158905       152.700455               0.       34.7995224
               19                2       217.212341       143.009781               0.       18.4053955
               19                3       263.007599       218.025803               0.       46.1367111
               19                4       229.814224       214.348495               0.       33.8374825
               20                1       97.9727783       221.219772               0.       59.1176758
               20                2       174.469818       368.965851               0.       53.2448006
               20                3       86.1468964       186.668854               0.       96.5082321
               20                4       163.855591       337.352051               0.       96.0200806
               21                1       358.148499       262.392914               0.      -182.689255
               21                2       293.602020       247.869888               0.      -201.443008
               21                3       271.004730       213.428635               0.      -171.453476
               21                4       208.609634       195.721466               0.      -185.054977
               22                1       180.169174       219.699234               0.      -183.653580
               22                2       221.695847       287.601410               0.      -196.784592
               22                3       196.071732       277.620270               0.      -167.574341
               22                4       235.209106       345.491516               0.      -177.276611
               23                1       106.024773       330.173462               0.      -86.5110092
               23                2       175.266388       383.068512               0.      -35.3147240
               23                3       59.6201210       222.569016               0.      -91.1741409
               23                4       121.321526       271.326538               0.      -46.9644432
               24                1       152.700455       250.158905               0.      -34.7995224
               24                2       143.009781       217.212341               0.      -18.4053955
               24                3       218.025803       263.007599               0.      -46.1367111
               24                4       214.348495       229.814224               0.      -33.8374825
               25                1       221.219772       97.9727783               0.      -59.1176758
               25                2       368.965851       174.469818               0.      -53.2448006
               25                3       186.668854       86.1468964               0.      -96.5082321
               25                4       337.352051       163.855591               0.      -96.0200806
               26                1       262.392914       358.148499               0.       182.689255
               26                2       247.869888       293.602020               0.       201.443008
               26                3       213.428635       271.004730               0.       171.453476
               26                4       195.721466       208.609634               0.       185.054977
               27                1       219.699234       180.169174               0.       183.653580
               27                2       287.601410       221.695847               0.       196.784592
               27                3       277.620270       196.071732               0.       167.574341
               27                4       345.491516       235.209106               0.       177.276611
               28                1       330.173462       106.024773               0.       86.5110092
               28                2       383.068512       175.266388               0.       35.3147240
               28                3       222.569016       59.6201210               0.       91.1741409
               28                4       271.326538       121.321526               0.       46.9644432
               29                1       250.158905       152.700455               0.       34.7995224
               29                2       217.212341       143.009781               0.       18.4053955
               29                3       263.007599       218.025803               0.       46.1367111
               29                4       229.814224       214.348495               0.       33.8374825
               30                1       97.9727783       221.219772               0.       59.1176758
               30                2       174.469818       368.965851               0.       53.2448006
               30                3       86.1468964       186.668854               0.       96.5082321
               30                4       163.855591       337.352051               0.       96.0200806
               31                1       235.209106       345.491516               0.       177.276611
               31                2       221.695847       287.601410               0.       196.784592
               31                3       196.071732       277.620270               0.       167.574341
               31                4       180.169174       219.699234               0.       183.653580
               32                1       208.609634       195.721466               0.       185.054977
               32                2       293.602020       247.869888               0.       201.443008
               32                3       271.004730       213.428635               0.       171.453476
               32                4       358.148499       262.392914               0.       182.689255
               33                1       337.352051       163.855591               0.       96.0200806
               33                2       368.965851       174.469818               0.       53.2448006
               33                3       186.668854       86.1468964               0.       96.5082321
               33                4       221.219772       97.9727783               0.       59.1176758
               34                1       214.348495       229.814224               0.       33.8374825
               34                2       143.009781       217.212341               0.       18.4053955
               34                3       218.025803       263.007599               0.       46.1367111
               34                4       152.700455       250.158905               0.       34.7995224
               35                1       121.321526       271.326538               0.       46.9644432
               35                2       175.266388       383.068512               0.       35.3147240
               35                3       59.6201210       222.569016               0.       91.1741409
               35                4       106.024773       330.173462               0.       86.5110092
               36                1       345.491516       235.209106               0.      -177.276611
               36                2       287.601410       221.695847               0.      -196.784592
               36                3       277.620270       196.071732               0.      -167.574341
               36                4       219.699234       180.169174               0.      -183.653580
               37                1       195.721466       208.609634               0.      -185.054977
               37                2       247.869888       293.602020               0.      -201.443008
               37                3       213.428635       271.004730               0.      -171.453476
               37                4       262.392914       358.148499               0.      -182.689255
               38                1       163.855591       337.352051               0.      -96.0200806
               38                2       174.469818       368.965851               0.      -53.2448006
               38                3       86.1468964       186.668854               0.      -96.5082321
               38                4       97.9727783       221.219772               0.      -59.1176758
               39                1       229.814224       214.348495               0.      -33.8374825
               39                2       217.212341       143.009781               0.      -18.4053955
               39                3       263.007599       218.025803               0.      -46.1367111
               39                4       250.158905       152.700455               0.      -34.7995224
               40                1       271.326538       121.321526               0.      -46.9644432
               40                2       383.068512       175.266388               0.      -35.3147240
               40                3       222.569016       59.6201210               0.      -91.1741409
               40                4       330.173462       106.024773               0.      -86.5110092


********************************************************************************
Field Output Report, written Thu Apr 24 16:16:32 2025

Source 1
---------

   ODB: C:/lnms/Vid/CrossHoleSym/CrossHoleSymU.odb
   Step: loading
   Frame: Increment      9: Step Time =   0.9000

Loc 1 : Integration point values from source 1

Output sorted by column "Element Label".

Field Output reported at integration points for region: SPECIMEN-1.Region_1

          Element              Int            S.S11            S.S22            S.S33            S.S12
            Label               Pt           @Loc 1           @Loc 1           @Loc 1           @Loc 1
-------------------------------------------------------------------------------------------------------
                1                1       373.592224       254.772278               0.      -192.790436
                1                2       309.046051       237.710907               0.      -214.607300
                1                3       300.333282       212.933502               0.      -181.546570
                1                4       236.205338       193.671570               0.      -199.450775
                2                1       210.173050       224.208054               0.      -201.058945
                2                2       266.649292       315.372345               0.      -219.754532
                2                3       229.615433       292.494202               0.      -186.340591
                2                4       282.729553       386.340454               0.      -199.361847
                3                1       173.640732       360.149017               0.      -104.386154
                3                2       186.011246       395.513000               0.      -57.3551598
                3                3       87.9604950       193.801620               0.      -104.442200
                3                4       101.873764       233.016190               0.      -63.4695282
                4                1       243.517471       227.527328               0.      -36.1724815
                4                2       228.416245       150.675568               0.      -19.5246124
                4                3       280.002655       232.271164               0.      -49.2423553
                4                4       265.095490       161.938538               0.      -36.8996391
                5                1       287.948669       128.071701               0.      -50.2480125
                5                2       409.769928       186.893494               0.      -37.7344589
                5                3       232.664307       58.9475136               0.      -98.6838913
                5                4       350.683472       109.745857               0.      -93.8648071
                6                1       386.340454       282.729553               0.      -199.361847
                6                2       315.372345       266.649292               0.      -219.754532
                6                3       292.494202       229.615433               0.      -186.340591
                6                4       224.208054       210.173050               0.      -201.058945
                7                1       193.671570       236.205338               0.      -199.450775
                7                2       237.710907       309.046051               0.      -214.607300
                7                3       212.933502       300.333282               0.      -181.546570
                7                4       254.772278       373.592224               0.      -192.790436
                8                1       109.745857       350.683472               0.      -93.8648071
                8                2       186.893494       409.769928               0.      -37.7344589
                8                3       58.9475136       232.664307               0.      -98.6838913
                8                4       128.071701       287.948669               0.      -50.2480125
                9                1       161.938538       265.095490               0.      -36.8996391
                9                2       150.675568       228.416245               0.      -19.5246124
                9                3       232.271164       280.002655               0.      -49.2423553
                9                4       227.527328       243.517471               0.      -36.1724815
               10                1       233.016190       101.873764               0.      -63.4695282
               10                2       395.513000       186.011246               0.      -57.3551598
               10                3       193.801620       87.9604950               0.      -104.442200
               10                4       360.149017       173.640732               0.      -104.386154
               11                1       254.772278       373.592224               0.       192.790436
               11                2       237.710907       309.046051               0.       214.607300
               11                3       212.933502       300.333282               0.       181.546570
               11                4       193.671570       236.205338               0.       199.450775
               12                1       224.208054       210.173050               0.       201.058945
               12                2       315.372345       266.649292               0.       219.754532
               12                3       292.494202       229.615433               0.       186.340591
               12                4       386.340454       282.729553               0.       199.361847
               13                1       360.149017       173.640732               0.       104.386154
               13                2       395.513000       186.011246               0.       57.3551598
               13                3       193.801620       87.9604950               0.       104.442200
               13                4       233.016190       101.873764               0.       63.4695282
               14                1       227.527328       243.517471               0.       36.1724815
               14                2       150.675568       228.416245               0.       19.5246124
               14                3       232.271164       280.002655               0.       49.2423553
               14                4       161.938538       265.095490               0.       36.8996391
               15                1       128.071701       287.948669               0.       50.2480125
               15                2       186.893494       409.769928               0.       37.7344589
               15                3       58.9475136       232.664307               0.       98.6838913
               15                4       109.745857       350.683472               0.       93.8648071
               16                1       282.729553       386.340454               0.       199.361847
               16                2       266.649292       315.372345               0.       219.754532
               16                3       229.615433       292.494202               0.       186.340591
               16                4       210.173050       224.208054               0.       201.058945
               17                1       236.205338       193.671570               0.       199.450775
               17                2       309.046051       237.710907               0.       214.607300
               17                3       300.333282       212.933502               0.       181.546570
               17                4       373.592224       254.772278               0.       192.790436
               18                1       350.683472       109.745857               0.       93.8648071
               18                2       409.769928       186.893494               0.       37.7344589
               18                3       232.664307       58.9475136               0.       98.6838913
               18                4       287.948669       128.071701               0.       50.2480125
               19                1       265.095490       161.938538               0.       36.8996391
               19                2       228.416245       150.675568               0.       19.5246124
               19                3       280.002655       232.271164               0.       49.2423553
               19                4       243.517471       227.527328               0.       36.1724815
               20                1       101.873764       233.016190               0.       63.4695282
               20                2       186.011246       395.513000               0.       57.3551598
               20                3       87.9604950       193.801620               0.       104.442200
               20                4       173.640732       360.149017               0.       104.386154
               21                1       386.340454       282.729553               0.      -199.361847
               21                2       315.372345       266.649292               0.      -219.754532
               21                3       292.494202       229.615433               0.      -186.340591
               21                4       224.208054       210.173050               0.      -201.058945
               22                1       193.671570       236.205338               0.      -199.450775
               22                2       237.710907       309.046051               0.      -214.607300
               22                3       212.933502       300.333282               0.      -181.546570
               22                4       254.772278       373.592224               0.      -192.790436
               23                1       109.745857       350.683472               0.      -93.8648071
               23                2       186.893494       409.769928               0.      -37.7344589
               23                3       58.9475136       232.664307               0.      -98.6838913
               23                4       128.071701       287.948669               0.      -50.2480125
               24                1       161.938538       265.095490               0.      -36.8996391
               24                2       150.675568       228.416245               0.      -19.5246124
               24                3       232.271164       280.002655               0.      -49.2423553
               24                4       227.527328       243.517471               0.      -36.1724815
               25                1       233.016190       101.873764               0.      -63.4695282
               25                2       395.513000       186.011246               0.      -57.3551598
               25                3       193.801620       87.9604950               0.      -104.442200
               25                4       360.149017       173.640732               0.      -104.386154
               26                1       282.729553       386.340454               0.       199.361847
               26                2       266.649292       315.372345               0.       219.754532
               26                3       229.615433       292.494202               0.       186.340591
               26                4       210.173050       224.208054               0.       201.058945
               27                1       236.205338       193.671570               0.       199.450775
               27                2       309.046051       237.710907               0.       214.607300
               27                3       300.333282       212.933502               0.       181.546570
               27                4       373.592224       254.772278               0.       192.790436
               28                1       350.683472       109.745857               0.       93.8648071
               28                2       409.769928       186.893494               0.       37.7344589
               28                3       232.664307       58.9475136               0.       98.6838913
               28                4       287.948669       128.071701               0.       50.2480125
               29                1       265.095490       161.938538               0.       36.8996391
               29                2       228.416245       150.675568               0.       19.5246124
               29                3       280.002655       232.271164               0.       49.2423553
               29                4       243.517471       227.527328               0.       36.1724815
               30                1       101.873764       233.016190               0.       63.4695282
               30                2       186.011246       395.513000               0.       57.3551598
               30                3       87.9604950       193.801620               0.       104.442200
               30                4       173.640732       360.149017               0.       104.386154
               31                1       254.772278       373.592224               0.       192.790436
               31                2       237.710907       309.046051               0.       214.607300
               31                3       212.933502       300.333282               0.       181.546570
               31                4       193.671570       236.205338               0.       199.450775
               32                1       224.208054       210.173050               0.       201.058945
               32                2       315.372345       266.649292               0.       219.754532
               32                3       292.494202       229.615433               0.       186.340591
               32                4       386.340454       282.729553               0.       199.361847
               33                1       360.149017       173.640732               0.       104.386154
               33                2       395.513000       186.011246               0.       57.3551598
               33                3       193.801620       87.9604950               0.       104.442200
               33                4       233.016190       101.873764               0.       63.4695282
               34                1       227.527328       243.517471               0.       36.1724815
               34                2       150.675568       228.416245               0.       19.5246124
               34                3       232.271164       280.002655               0.       49.2423553
               34                4       161.938538       265.095490               0.       36.8996391
               35                1       128.071701       287.948669               0.       50.2480125
               35                2       186.893494       409.769928               0.       37.7344589
               35                3       58.9475136       232.664307               0.       98.6838913
               35                4       109.745857       350.683472               0.       93.8648071
               36                1       373.592224       254.772278               0.      -192.790436
               36                2       309.046051       237.710907               0.      -214.607300
               36                3       300.333282       212.933502               0.      -181.546570
               36                4       236.205338       193.671570               0.      -199.450775
               37                1       210.173050       224.208054               0.      -201.058945
               37                2       266.649292       315.372345               0.      -219.754532
               37                3       229.615433       292.494202               0.      -186.340591
               37                4       282.729553       386.340454               0.      -199.361847
               38                1       173.640732       360.149017               0.      -104.386154
               38                2       186.011246       395.513000               0.      -57.3551598
               38                3       87.9604950       193.801620               0.      -104.442200
               38                4       101.873764       233.016190               0.      -63.4695282
               39                1       243.517471       227.527328               0.      -36.1724815
               39                2       228.416245       150.675568               0.      -19.5246124
               39                3       280.002655       232.271164               0.      -49.2423553
               39                4       265.095490       161.938538               0.      -36.8996391
               40                1       287.948669       128.071701               0.      -50.2480125
               40                2       409.769928       186.893494               0.      -37.7344589
               40                3       232.664307       58.9475136               0.      -98.6838913
               40                4       350.683472       109.745857               0.      -93.8648071


********************************************************************************
Field Output Report, written Thu Apr 24 16:16:35 2025

Source 1
---------

   ODB: C:/lnms/Vid/CrossHoleSym/CrossHoleSymU.odb
   Step: loading
   Frame: Increment     10: Step Time =    1.000

Loc 1 : Integration point values from source 1

Output sorted by column "Element Label".

Field Output reported at integration points for region: SPECIMEN-1.Region_1

          Element              Int            S.S11            S.S22            S.S33            S.S12
            Label               Pt           @Loc 1           @Loc 1           @Loc 1           @Loc 1
-------------------------------------------------------------------------------------------------------
                1                1       401.192596       274.154205               0.      -208.048935
                1                2       329.769562       253.143860               0.      -232.258331
                1                3       322.921295       229.869827               0.      -195.346161
                1                4       252.399399       206.927383               0.      -215.158508
                2                1       224.380142       239.561157               0.      -216.972977
                2                2       284.904633       336.444824               0.      -237.919678
                2                3       245.545731       313.740479               0.      -201.138123
                2                4       302.548340       413.850861               0.      -215.907196
                3                1       182.734741       381.524780               0.      -112.569565
                3                2       196.908005       420.778656               0.      -61.2338905
                3                3       89.1530457       199.633011               0.      -112.327477
                3                4       105.322533       243.970642               0.      -67.7091827
                4                1       256.311462       239.830444               0.      -38.3787537
                4                2       238.876724       157.841934               0.      -20.5788784
                4                3       295.874023       245.558456               0.      -52.1456070
                4                4       279.061890       170.576172               0.      -38.8523750
                5                1       303.429779       134.236069               0.      -53.4096794
                5                2       434.850311       197.737686               0.      -39.9864960
                5                3       241.189346       57.4665756               0.      -106.137215
                5                4       369.473022       112.672401               0.      -101.089561
                6                1       413.850861       302.548340               0.      -215.907196
                6                2       336.444824       284.904633               0.      -237.919678
                6                3       313.740479       245.545731               0.      -201.138123
                6                4       239.561157       224.380142               0.      -216.972977
                7                1       206.927383       252.399399               0.      -215.158508
                7                2       253.143860       329.769562               0.      -232.258331
                7                3       229.869827       322.921295               0.      -195.346161
                7                4       274.154205       401.192596               0.      -208.048935
                8                1       112.672401       369.473022               0.      -101.089561
                8                2       197.737686       434.850311               0.      -39.9864960
                8                3       57.4665756       241.189346               0.      -106.137215
                8                4       134.236069       303.429779               0.      -53.4096794
                9                1       170.576172       279.061890               0.      -38.8523750
                9                2       157.841934       238.876724               0.      -20.5788784
                9                3       245.558456       295.874023               0.      -52.1456070
                9                4       239.830444       256.311462               0.      -38.3787537
               10                1       243.970642       105.322533               0.      -67.7091827
               10                2       420.778656       196.908005               0.      -61.2338905
               10                3       199.633011       89.1530457               0.      -112.327477
               10                4       381.524780       182.734741               0.      -112.569565
               11                1       274.154205       401.192596               0.       208.048935
               11                2       253.143860       329.769562               0.       232.258331
               11                3       229.869827       322.921295               0.       195.346161
               11                4       206.927383       252.399399               0.       215.158508
               12                1       239.561157       224.380142               0.       216.972977
               12                2       336.444824       284.904633               0.       237.919678
               12                3       313.740479       245.545731               0.       201.138123
               12                4       413.850861       302.548340               0.       215.907196
               13                1       381.524780       182.734741               0.       112.569565
               13                2       420.778656       196.908005               0.       61.2338905
               13                3       199.633011       89.1530457               0.       112.327477
               13                4       243.970642       105.322533               0.       67.7091827
               14                1       239.830444       256.311462               0.       38.3787537
               14                2       157.841934       238.876724               0.       20.5788784
               14                3       245.558456       295.874023               0.       52.1456070
               14                4       170.576172       279.061890               0.       38.8523750
               15                1       134.236069       303.429779               0.       53.4096794
               15                2       197.737686       434.850311               0.       39.9864960
               15                3       57.4665756       241.189346               0.       106.137215
               15                4       112.672401       369.473022               0.       101.089561
               16                1       302.548340       413.850861               0.       215.907196
               16                2       284.904633       336.444824               0.       237.919678
               16                3       245.545731       313.740479               0.       201.138123
               16                4       224.380142       239.561157               0.       216.972977
               17                1       252.399399       206.927383               0.       215.158508
               17                2       329.769562       253.143860               0.       232.258331
               17                3       322.921295       229.869827               0.       195.346161
               17                4       401.192596       274.154205               0.       208.048935
               18                1       369.473022       112.672401               0.       101.089561
               18                2       434.850311       197.737686               0.       39.9864960
               18                3       241.189346       57.4665756               0.       106.137215
               18                4       303.429779       134.236069               0.       53.4096794
               19                1       279.061890       170.576172               0.       38.8523750
               19                2       238.876724       157.841934               0.       20.5788784
               19                3       295.874023       245.558456               0.       52.1456070
               19                4       256.311462       239.830444               0.       38.3787537
               20                1       105.322533       243.970642               0.       67.7091827
               20                2       196.908005       420.778656               0.       61.2338905
               20                3       89.1530457       199.633011               0.       112.327477
               20                4       182.734741       381.524780               0.       112.569565
               21                1       413.850861       302.548340               0.      -215.907196
               21                2       336.444824       284.904633               0.      -237.919678
               21                3       313.740479       245.545731               0.      -201.138123
               21                4       239.561157       224.380142               0.      -216.972977
               22                1       206.927383       252.399399               0.      -215.158508
               22                2       253.143860       329.769562               0.      -232.258331
               22                3       229.869827       322.921295               0.      -195.346161
               22                4       274.154205       401.192596               0.      -208.048935
               23                1       112.672401       369.473022               0.      -101.089561
               23                2       197.737686       434.850311               0.      -39.9864960
               23                3       57.4665756       241.189346               0.      -106.137215
               23                4       134.236069       303.429779               0.      -53.4096794
               24                1       170.576172       279.061890               0.      -38.8523750
               24                2       157.841934       238.876724               0.      -20.5788784
               24                3       245.558456       295.874023               0.      -52.1456070
               24                4       239.830444       256.311462               0.      -38.3787537
               25                1       243.970642       105.322533               0.      -67.7091827
               25                2       420.778656       196.908005               0.      -61.2338905
               25                3       199.633011       89.1530457               0.      -112.327477
               25                4       381.524780       182.734741               0.      -112.569565
               26                1       302.548340       413.850861               0.       215.907196
               26                2       284.904633       336.444824               0.       237.919678
               26                3       245.545731       313.740479               0.       201.138123
               26                4       224.380142       239.561157               0.       216.972977
               27                1       252.399399       206.927383               0.       215.158508
               27                2       329.769562       253.143860               0.       232.258331
               27                3       322.921295       229.869827               0.       195.346161
               27                4       401.192596       274.154205               0.       208.048935
               28                1       369.473022       112.672401               0.       101.089561
               28                2       434.850311       197.737686               0.       39.9864960
               28                3       241.189346       57.4665756               0.       106.137215
               28                4       303.429779       134.236069               0.       53.4096794
               29                1       279.061890       170.576172               0.       38.8523750
               29                2       238.876724       157.841934               0.       20.5788784
               29                3       295.874023       245.558456               0.       52.1456070
               29                4       256.311462       239.830444               0.       38.3787537
               30                1       105.322533       243.970642               0.       67.7091827
               30                2       196.908005       420.778656               0.       61.2338905
               30                3       89.1530457       199.633011               0.       112.327477
               30                4       182.734741       381.524780               0.       112.569565
               31                1       274.154205       401.192596               0.       208.048935
               31                2       253.143860       329.769562               0.       232.258331
               31                3       229.869827       322.921295               0.       195.346161
               31                4       206.927383       252.399399               0.       215.158508
               32                1       239.561157       224.380142               0.       216.972977
               32                2       336.444824       284.904633               0.       237.919678
               32                3       313.740479       245.545731               0.       201.138123
               32                4       413.850861       302.548340               0.       215.907196
               33                1       381.524780       182.734741               0.       112.569565
               33                2       420.778656       196.908005               0.       61.2338905
               33                3       199.633011       89.1530457               0.       112.327477
               33                4       243.970642       105.322533               0.       67.7091827
               34                1       239.830444       256.311462               0.       38.3787537
               34                2       157.841934       238.876724               0.       20.5788784
               34                3       245.558456       295.874023               0.       52.1456070
               34                4       170.576172       279.061890               0.       38.8523750
               35                1       134.236069       303.429779               0.       53.4096794
               35                2       197.737686       434.850311               0.       39.9864960
               35                3       57.4665756       241.189346               0.       106.137215
               35                4       112.672401       369.473022               0.       101.089561
               36                1       401.192596       274.154205               0.      -208.048935
               36                2       329.769562       253.143860               0.      -232.258331
               36                3       322.921295       229.869827               0.      -195.346161
               36                4       252.399399       206.927383               0.      -215.158508
               37                1       224.380142       239.561157               0.      -216.972977
               37                2       284.904633       336.444824               0.      -237.919678
               37                3       245.545731       313.740479               0.      -201.138123
               37                4       302.548340       413.850861               0.      -215.907196
               38                1       182.734741       381.524780               0.      -112.569565
               38                2       196.908005       420.778656               0.      -61.2338905
               38                3       89.1530457       199.633011               0.      -112.327477
               38                4       105.322533       243.970642               0.      -67.7091827
               39                1       256.311462       239.830444               0.      -38.3787537
               39                2       238.876724       157.841934               0.      -20.5788784
               39                3       295.874023       245.558456               0.      -52.1456070
               39                4       279.061890       170.576172               0.      -38.8523750
               40                1       303.429779       134.236069               0.      -53.4096794
               40                2       434.850311       197.737686               0.      -39.9864960
               40                3       241.189346       57.4665756               0.      -106.137215
               40                4       369.473022       112.672401               0.      -101.089561


