********************************************************************************
Field Output Report, written Mon May 12 10:41:44 2025

Source 1
---------

   ODB: C:/lnms/Vid/CrossHoleSym2/CrossHoleSym2brezU.odb
   Step: loading
   Frame: Increment      0: Step Time =    0.000

Loc 1 : Integration point values from source 1

Output sorted by column "Element Label".

Field Output reported at integration points for part: SPECIMEN-1

          Element              Int            S.S11            S.S22            S.S33            S.S12
            Label               Pt           @Loc 1           @Loc 1           @Loc 1           @Loc 1
-------------------------------------------------------------------------------------------------------
                1                1               0.               0.               0.               0.
                1                2               0.               0.               0.               0.
                1                3               0.               0.               0.               0.
                1                4               0.               0.               0.               0.
                2                1               0.               0.               0.               0.
                2                2               0.               0.               0.               0.
                2                3               0.               0.               0.               0.
                2                4               0.               0.               0.               0.
                3                1               0.               0.               0.               0.
                3                2               0.               0.               0.               0.
                3                3               0.               0.               0.               0.
                3                4               0.               0.               0.               0.
                4                1               0.               0.               0.               0.
                4                2               0.               0.               0.               0.
                4                3               0.               0.               0.               0.
                4                4               0.               0.               0.               0.
                5                1               0.               0.               0.               0.
                5                2               0.               0.               0.               0.
                5                3               0.               0.               0.               0.
                5                4               0.               0.               0.               0.
                6                1               0.               0.               0.               0.
                6                2               0.               0.               0.               0.
                6                3               0.               0.               0.               0.
                6                4               0.               0.               0.               0.
                7                1               0.               0.               0.               0.
                7                2               0.               0.               0.               0.
                7                3               0.               0.               0.               0.
                7                4               0.               0.               0.               0.
                8                1               0.               0.               0.               0.
                8                2               0.               0.               0.               0.
                8                3               0.               0.               0.               0.
                8                4               0.               0.               0.               0.
                9                1               0.               0.               0.               0.
                9                2               0.               0.               0.               0.
                9                3               0.               0.               0.               0.
                9                4               0.               0.               0.               0.
               10                1               0.               0.               0.               0.
               10                2               0.               0.               0.               0.
               10                3               0.               0.               0.               0.
               10                4               0.               0.               0.               0.
               11                1               0.               0.               0.               0.
               11                2               0.               0.               0.               0.
               11                3               0.               0.               0.               0.
               11                4               0.               0.               0.               0.
               12                1               0.               0.               0.               0.
               12                2               0.               0.               0.               0.
               12                3               0.               0.               0.               0.
               12                4               0.               0.               0.               0.
               13                1               0.               0.               0.               0.
               13                2               0.               0.               0.               0.
               13                3               0.               0.               0.               0.
               13                4               0.               0.               0.               0.
               14                1               0.               0.               0.               0.
               14                2               0.               0.               0.               0.
               14                3               0.               0.               0.               0.
               14                4               0.               0.               0.               0.
               15                1               0.               0.               0.               0.
               15                2               0.               0.               0.               0.
               15                3               0.               0.               0.               0.
               15                4               0.               0.               0.               0.
               16                1               0.               0.               0.               0.
               16                2               0.               0.               0.               0.
               16                3               0.               0.               0.               0.
               16                4               0.               0.               0.               0.
               17                1               0.               0.               0.               0.
               17                2               0.               0.               0.               0.
               17                3               0.               0.               0.               0.
               17                4               0.               0.               0.               0.
               18                1               0.               0.               0.               0.
               18                2               0.               0.               0.               0.
               18                3               0.               0.               0.               0.
               18                4               0.               0.               0.               0.
               19                1               0.               0.               0.               0.
               19                2               0.               0.               0.               0.
               19                3               0.               0.               0.               0.
               19                4               0.               0.               0.               0.
               20                1               0.               0.               0.               0.
               20                2               0.               0.               0.               0.
               20                3               0.               0.               0.               0.
               20                4               0.               0.               0.               0.
               21                1               0.               0.               0.               0.
               21                2               0.               0.               0.               0.
               21                3               0.               0.               0.               0.
               21                4               0.               0.               0.               0.
               22                1               0.               0.               0.               0.
               22                2               0.               0.               0.               0.
               22                3               0.               0.               0.               0.
               22                4               0.               0.               0.               0.
               23                1               0.               0.               0.               0.
               23                2               0.               0.               0.               0.
               23                3               0.               0.               0.               0.
               23                4               0.               0.               0.               0.
               24                1               0.               0.               0.               0.
               24                2               0.               0.               0.               0.
               24                3               0.               0.               0.               0.
               24                4               0.               0.               0.               0.
               25                1               0.               0.               0.               0.
               25                2               0.               0.               0.               0.
               25                3               0.               0.               0.               0.
               25                4               0.               0.               0.               0.
               26                1               0.               0.               0.               0.
               26                2               0.               0.               0.               0.
               26                3               0.               0.               0.               0.
               26                4               0.               0.               0.               0.
               27                1               0.               0.               0.               0.
               27                2               0.               0.               0.               0.
               27                3               0.               0.               0.               0.
               27                4               0.               0.               0.               0.
               28                1               0.               0.               0.               0.
               28                2               0.               0.               0.               0.
               28                3               0.               0.               0.               0.
               28                4               0.               0.               0.               0.
               29                1               0.               0.               0.               0.
               29                2               0.               0.               0.               0.
               29                3               0.               0.               0.               0.
               29                4               0.               0.               0.               0.
               30                1               0.               0.               0.               0.
               30                2               0.               0.               0.               0.
               30                3               0.               0.               0.               0.
               30                4               0.               0.               0.               0.
               31                1               0.               0.               0.               0.
               31                2               0.               0.               0.               0.
               31                3               0.               0.               0.               0.
               31                4               0.               0.               0.               0.
               32                1               0.               0.               0.               0.
               32                2               0.               0.               0.               0.
               32                3               0.               0.               0.               0.
               32                4               0.               0.               0.               0.
               33                1               0.               0.               0.               0.
               33                2               0.               0.               0.               0.
               33                3               0.               0.               0.               0.
               33                4               0.               0.               0.               0.
               34                1               0.               0.               0.               0.
               34                2               0.               0.               0.               0.
               34                3               0.               0.               0.               0.
               34                4               0.               0.               0.               0.
               35                1               0.               0.               0.               0.
               35                2               0.               0.               0.               0.
               35                3               0.               0.               0.               0.
               35                4               0.               0.               0.               0.
               36                1               0.               0.               0.               0.
               36                2               0.               0.               0.               0.
               36                3               0.               0.               0.               0.
               36                4               0.               0.               0.               0.
               37                1               0.               0.               0.               0.
               37                2               0.               0.               0.               0.
               37                3               0.               0.               0.               0.
               37                4               0.               0.               0.               0.
               38                1               0.               0.               0.               0.
               38                2               0.               0.               0.               0.
               38                3               0.               0.               0.               0.
               38                4               0.               0.               0.               0.
               39                1               0.               0.               0.               0.
               39                2               0.               0.               0.               0.
               39                3               0.               0.               0.               0.
               39                4               0.               0.               0.               0.
               40                1               0.               0.               0.               0.
               40                2               0.               0.               0.               0.
               40                3               0.               0.               0.               0.
               40                4               0.               0.               0.               0.
               41                1               0.               0.               0.               0.
               41                2               0.               0.               0.               0.
               41                3               0.               0.               0.               0.
               41                4               0.               0.               0.               0.
               42                1               0.               0.               0.               0.
               42                2               0.               0.               0.               0.
               42                3               0.               0.               0.               0.
               42                4               0.               0.               0.               0.
               43                1               0.               0.               0.               0.
               43                2               0.               0.               0.               0.
               43                3               0.               0.               0.               0.
               43                4               0.               0.               0.               0.
               44                1               0.               0.               0.               0.
               44                2               0.               0.               0.               0.
               44                3               0.               0.               0.               0.
               44                4               0.               0.               0.               0.
               45                1               0.               0.               0.               0.
               45                2               0.               0.               0.               0.
               45                3               0.               0.               0.               0.
               45                4               0.               0.               0.               0.
               46                1               0.               0.               0.               0.
               46                2               0.               0.               0.               0.
               46                3               0.               0.               0.               0.
               46                4               0.               0.               0.               0.
               47                1               0.               0.               0.               0.
               47                2               0.               0.               0.               0.
               47                3               0.               0.               0.               0.
               47                4               0.               0.               0.               0.
               48                1               0.               0.               0.               0.
               48                2               0.               0.               0.               0.
               48                3               0.               0.               0.               0.
               48                4               0.               0.               0.               0.
               49                1               0.               0.               0.               0.
               49                2               0.               0.               0.               0.
               49                3               0.               0.               0.               0.
               49                4               0.               0.               0.               0.
               50                1               0.               0.               0.               0.
               50                2               0.               0.               0.               0.
               50                3               0.               0.               0.               0.
               50                4               0.               0.               0.               0.
               51                1               0.               0.               0.               0.
               51                2               0.               0.               0.               0.
               51                3               0.               0.               0.               0.
               51                4               0.               0.               0.               0.
               52                1               0.               0.               0.               0.
               52                2               0.               0.               0.               0.
               52                3               0.               0.               0.               0.
               52                4               0.               0.               0.               0.
               53                1               0.               0.               0.               0.
               53                2               0.               0.               0.               0.
               53                3               0.               0.               0.               0.
               53                4               0.               0.               0.               0.
               54                1               0.               0.               0.               0.
               54                2               0.               0.               0.               0.
               54                3               0.               0.               0.               0.
               54                4               0.               0.               0.               0.
               55                1               0.               0.               0.               0.
               55                2               0.               0.               0.               0.
               55                3               0.               0.               0.               0.
               55                4               0.               0.               0.               0.
               56                1               0.               0.               0.               0.
               56                2               0.               0.               0.               0.
               56                3               0.               0.               0.               0.
               56                4               0.               0.               0.               0.
               57                1               0.               0.               0.               0.
               57                2               0.               0.               0.               0.
               57                3               0.               0.               0.               0.
               57                4               0.               0.               0.               0.
               58                1               0.               0.               0.               0.
               58                2               0.               0.               0.               0.
               58                3               0.               0.               0.               0.
               58                4               0.               0.               0.               0.
               59                1               0.               0.               0.               0.
               59                2               0.               0.               0.               0.
               59                3               0.               0.               0.               0.
               59                4               0.               0.               0.               0.
               60                1               0.               0.               0.               0.
               60                2               0.               0.               0.               0.
               60                3               0.               0.               0.               0.
               60                4               0.               0.               0.               0.
               61                1               0.               0.               0.               0.
               61                2               0.               0.               0.               0.
               61                3               0.               0.               0.               0.
               61                4               0.               0.               0.               0.
               62                1               0.               0.               0.               0.
               62                2               0.               0.               0.               0.
               62                3               0.               0.               0.               0.
               62                4               0.               0.               0.               0.
               63                1               0.               0.               0.               0.
               63                2               0.               0.               0.               0.
               63                3               0.               0.               0.               0.
               63                4               0.               0.               0.               0.
               64                1               0.               0.               0.               0.
               64                2               0.               0.               0.               0.
               64                3               0.               0.               0.               0.
               64                4               0.               0.               0.               0.
               65                1               0.               0.               0.               0.
               65                2               0.               0.               0.               0.
               65                3               0.               0.               0.               0.
               65                4               0.               0.               0.               0.
               66                1               0.               0.               0.               0.
               66                2               0.               0.               0.               0.
               66                3               0.               0.               0.               0.
               66                4               0.               0.               0.               0.
               67                1               0.               0.               0.               0.
               67                2               0.               0.               0.               0.
               67                3               0.               0.               0.               0.
               67                4               0.               0.               0.               0.
               68                1               0.               0.               0.               0.
               68                2               0.               0.               0.               0.
               68                3               0.               0.               0.               0.
               68                4               0.               0.               0.               0.
               69                1               0.               0.               0.               0.
               69                2               0.               0.               0.               0.
               69                3               0.               0.               0.               0.
               69                4               0.               0.               0.               0.
               70                1               0.               0.               0.               0.
               70                2               0.               0.               0.               0.
               70                3               0.               0.               0.               0.
               70                4               0.               0.               0.               0.
               71                1               0.               0.               0.               0.
               71                2               0.               0.               0.               0.
               71                3               0.               0.               0.               0.
               71                4               0.               0.               0.               0.
               72                1               0.               0.               0.               0.
               72                2               0.               0.               0.               0.
               72                3               0.               0.               0.               0.
               72                4               0.               0.               0.               0.
               73                1               0.               0.               0.               0.
               73                2               0.               0.               0.               0.
               73                3               0.               0.               0.               0.
               73                4               0.               0.               0.               0.
               74                1               0.               0.               0.               0.
               74                2               0.               0.               0.               0.
               74                3               0.               0.               0.               0.
               74                4               0.               0.               0.               0.
               75                1               0.               0.               0.               0.
               75                2               0.               0.               0.               0.
               75                3               0.               0.               0.               0.
               75                4               0.               0.               0.               0.
               76                1               0.               0.               0.               0.
               76                2               0.               0.               0.               0.
               76                3               0.               0.               0.               0.
               76                4               0.               0.               0.               0.
               77                1               0.               0.               0.               0.
               77                2               0.               0.               0.               0.
               77                3               0.               0.               0.               0.
               77                4               0.               0.               0.               0.
               78                1               0.               0.               0.               0.
               78                2               0.               0.               0.               0.
               78                3               0.               0.               0.               0.
               78                4               0.               0.               0.               0.
               79                1               0.               0.               0.               0.
               79                2               0.               0.               0.               0.
               79                3               0.               0.               0.               0.
               79                4               0.               0.               0.               0.
               80                1               0.               0.               0.               0.
               80                2               0.               0.               0.               0.
               80                3               0.               0.               0.               0.
               80                4               0.               0.               0.               0.
               81                1               0.               0.               0.               0.
               81                2               0.               0.               0.               0.
               81                3               0.               0.               0.               0.
               81                4               0.               0.               0.               0.
               82                1               0.               0.               0.               0.
               82                2               0.               0.               0.               0.
               82                3               0.               0.               0.               0.
               82                4               0.               0.               0.               0.
               83                1               0.               0.               0.               0.
               83                2               0.               0.               0.               0.
               83                3               0.               0.               0.               0.
               83                4               0.               0.               0.               0.
               84                1               0.               0.               0.               0.
               84                2               0.               0.               0.               0.
               84                3               0.               0.               0.               0.
               84                4               0.               0.               0.               0.
               85                1               0.               0.               0.               0.
               85                2               0.               0.               0.               0.
               85                3               0.               0.               0.               0.
               85                4               0.               0.               0.               0.
               86                1               0.               0.               0.               0.
               86                2               0.               0.               0.               0.
               86                3               0.               0.               0.               0.
               86                4               0.               0.               0.               0.
               87                1               0.               0.               0.               0.
               87                2               0.               0.               0.               0.
               87                3               0.               0.               0.               0.
               87                4               0.               0.               0.               0.
               88                1               0.               0.               0.               0.
               88                2               0.               0.               0.               0.
               88                3               0.               0.               0.               0.
               88                4               0.               0.               0.               0.
               89                1               0.               0.               0.               0.
               89                2               0.               0.               0.               0.
               89                3               0.               0.               0.               0.
               89                4               0.               0.               0.               0.
               90                1               0.               0.               0.               0.
               90                2               0.               0.               0.               0.
               90                3               0.               0.               0.               0.
               90                4               0.               0.               0.               0.
               91                1               0.               0.               0.               0.
               91                2               0.               0.               0.               0.
               91                3               0.               0.               0.               0.
               91                4               0.               0.               0.               0.
               92                1               0.               0.               0.               0.
               92                2               0.               0.               0.               0.
               92                3               0.               0.               0.               0.
               92                4               0.               0.               0.               0.
               93                1               0.               0.               0.               0.
               93                2               0.               0.               0.               0.
               93                3               0.               0.               0.               0.
               93                4               0.               0.               0.               0.
               94                1               0.               0.               0.               0.
               94                2               0.               0.               0.               0.
               94                3               0.               0.               0.               0.
               94                4               0.               0.               0.               0.
               95                1               0.               0.               0.               0.
               95                2               0.               0.               0.               0.
               95                3               0.               0.               0.               0.
               95                4               0.               0.               0.               0.
               96                1               0.               0.               0.               0.
               96                2               0.               0.               0.               0.
               96                3               0.               0.               0.               0.
               96                4               0.               0.               0.               0.
               97                1               0.               0.               0.               0.
               97                2               0.               0.               0.               0.
               97                3               0.               0.               0.               0.
               97                4               0.               0.               0.               0.
               98                1               0.               0.               0.               0.
               98                2               0.               0.               0.               0.
               98                3               0.               0.               0.               0.
               98                4               0.               0.               0.               0.
               99                1               0.               0.               0.               0.
               99                2               0.               0.               0.               0.
               99                3               0.               0.               0.               0.
               99                4               0.               0.               0.               0.
              100                1               0.               0.               0.               0.
              100                2               0.               0.               0.               0.
              100                3               0.               0.               0.               0.
              100                4               0.               0.               0.               0.
              101                1               0.               0.               0.               0.
              101                2               0.               0.               0.               0.
              101                3               0.               0.               0.               0.
              101                4               0.               0.               0.               0.
              102                1               0.               0.               0.               0.
              102                2               0.               0.               0.               0.
              102                3               0.               0.               0.               0.
              102                4               0.               0.               0.               0.
              103                1               0.               0.               0.               0.
              103                2               0.               0.               0.               0.
              103                3               0.               0.               0.               0.
              103                4               0.               0.               0.               0.
              104                1               0.               0.               0.               0.
              104                2               0.               0.               0.               0.
              104                3               0.               0.               0.               0.
              104                4               0.               0.               0.               0.
              105                1               0.               0.               0.               0.
              105                2               0.               0.               0.               0.
              105                3               0.               0.               0.               0.
              105                4               0.               0.               0.               0.
              106                1               0.               0.               0.               0.
              106                2               0.               0.               0.               0.
              106                3               0.               0.               0.               0.
              106                4               0.               0.               0.               0.
              107                1               0.               0.               0.               0.
              107                2               0.               0.               0.               0.
              107                3               0.               0.               0.               0.
              107                4               0.               0.               0.               0.
              108                1               0.               0.               0.               0.
              108                2               0.               0.               0.               0.
              108                3               0.               0.               0.               0.
              108                4               0.               0.               0.               0.
              109                1               0.               0.               0.               0.
              109                2               0.               0.               0.               0.
              109                3               0.               0.               0.               0.
              109                4               0.               0.               0.               0.
              110                1               0.               0.               0.               0.
              110                2               0.               0.               0.               0.
              110                3               0.               0.               0.               0.
              110                4               0.               0.               0.               0.
              111                1               0.               0.               0.               0.
              111                2               0.               0.               0.               0.
              111                3               0.               0.               0.               0.
              111                4               0.               0.               0.               0.
              112                1               0.               0.               0.               0.
              112                2               0.               0.               0.               0.
              112                3               0.               0.               0.               0.
              112                4               0.               0.               0.               0.
              113                1               0.               0.               0.               0.
              113                2               0.               0.               0.               0.
              113                3               0.               0.               0.               0.
              113                4               0.               0.               0.               0.
              114                1               0.               0.               0.               0.
              114                2               0.               0.               0.               0.
              114                3               0.               0.               0.               0.
              114                4               0.               0.               0.               0.
              115                1               0.               0.               0.               0.
              115                2               0.               0.               0.               0.
              115                3               0.               0.               0.               0.
              115                4               0.               0.               0.               0.
              116                1               0.               0.               0.               0.
              116                2               0.               0.               0.               0.
              116                3               0.               0.               0.               0.
              116                4               0.               0.               0.               0.
              117                1               0.               0.               0.               0.
              117                2               0.               0.               0.               0.
              117                3               0.               0.               0.               0.
              117                4               0.               0.               0.               0.
              118                1               0.               0.               0.               0.
              118                2               0.               0.               0.               0.
              118                3               0.               0.               0.               0.
              118                4               0.               0.               0.               0.
              119                1               0.               0.               0.               0.
              119                2               0.               0.               0.               0.
              119                3               0.               0.               0.               0.
              119                4               0.               0.               0.               0.
              120                1               0.               0.               0.               0.
              120                2               0.               0.               0.               0.
              120                3               0.               0.               0.               0.
              120                4               0.               0.               0.               0.
              121                1               0.               0.               0.               0.
              121                2               0.               0.               0.               0.
              121                3               0.               0.               0.               0.
              121                4               0.               0.               0.               0.
              122                1               0.               0.               0.               0.
              122                2               0.               0.               0.               0.
              122                3               0.               0.               0.               0.
              122                4               0.               0.               0.               0.
              123                1               0.               0.               0.               0.
              123                2               0.               0.               0.               0.
              123                3               0.               0.               0.               0.
              123                4               0.               0.               0.               0.
              124                1               0.               0.               0.               0.
              124                2               0.               0.               0.               0.
              124                3               0.               0.               0.               0.
              124                4               0.               0.               0.               0.
              125                1               0.               0.               0.               0.
              125                2               0.               0.               0.               0.
              125                3               0.               0.               0.               0.
              125                4               0.               0.               0.               0.
              126                1               0.               0.               0.               0.
              126                2               0.               0.               0.               0.
              126                3               0.               0.               0.               0.
              126                4               0.               0.               0.               0.
              127                1               0.               0.               0.               0.
              127                2               0.               0.               0.               0.
              127                3               0.               0.               0.               0.
              127                4               0.               0.               0.               0.
              128                1               0.               0.               0.               0.
              128                2               0.               0.               0.               0.
              128                3               0.               0.               0.               0.
              128                4               0.               0.               0.               0.
              129                1               0.               0.               0.               0.
              129                2               0.               0.               0.               0.
              129                3               0.               0.               0.               0.
              129                4               0.               0.               0.               0.
              130                1               0.               0.               0.               0.
              130                2               0.               0.               0.               0.
              130                3               0.               0.               0.               0.
              130                4               0.               0.               0.               0.
              131                1               0.               0.               0.               0.
              131                2               0.               0.               0.               0.
              131                3               0.               0.               0.               0.
              131                4               0.               0.               0.               0.
              132                1               0.               0.               0.               0.
              132                2               0.               0.               0.               0.
              132                3               0.               0.               0.               0.
              132                4               0.               0.               0.               0.
              133                1               0.               0.               0.               0.
              133                2               0.               0.               0.               0.
              133                3               0.               0.               0.               0.
              133                4               0.               0.               0.               0.
              134                1               0.               0.               0.               0.
              134                2               0.               0.               0.               0.
              134                3               0.               0.               0.               0.
              134                4               0.               0.               0.               0.
              135                1               0.               0.               0.               0.
              135                2               0.               0.               0.               0.
              135                3               0.               0.               0.               0.
              135                4               0.               0.               0.               0.
              136                1               0.               0.               0.               0.
              136                2               0.               0.               0.               0.
              136                3               0.               0.               0.               0.
              136                4               0.               0.               0.               0.
              137                1               0.               0.               0.               0.
              137                2               0.               0.               0.               0.
              137                3               0.               0.               0.               0.
              137                4               0.               0.               0.               0.
              138                1               0.               0.               0.               0.
              138                2               0.               0.               0.               0.
              138                3               0.               0.               0.               0.
              138                4               0.               0.               0.               0.
              139                1               0.               0.               0.               0.
              139                2               0.               0.               0.               0.
              139                3               0.               0.               0.               0.
              139                4               0.               0.               0.               0.
              140                1               0.               0.               0.               0.
              140                2               0.               0.               0.               0.
              140                3               0.               0.               0.               0.
              140                4               0.               0.               0.               0.
              141                1               0.               0.               0.               0.
              141                2               0.               0.               0.               0.
              141                3               0.               0.               0.               0.
              141                4               0.               0.               0.               0.
              142                1               0.               0.               0.               0.
              142                2               0.               0.               0.               0.
              142                3               0.               0.               0.               0.
              142                4               0.               0.               0.               0.
              143                1               0.               0.               0.               0.
              143                2               0.               0.               0.               0.
              143                3               0.               0.               0.               0.
              143                4               0.               0.               0.               0.
              144                1               0.               0.               0.               0.
              144                2               0.               0.               0.               0.
              144                3               0.               0.               0.               0.
              144                4               0.               0.               0.               0.
              145                1               0.               0.               0.               0.
              145                2               0.               0.               0.               0.
              145                3               0.               0.               0.               0.
              145                4               0.               0.               0.               0.
              146                1               0.               0.               0.               0.
              146                2               0.               0.               0.               0.
              146                3               0.               0.               0.               0.
              146                4               0.               0.               0.               0.
              147                1               0.               0.               0.               0.
              147                2               0.               0.               0.               0.
              147                3               0.               0.               0.               0.
              147                4               0.               0.               0.               0.
              148                1               0.               0.               0.               0.
              148                2               0.               0.               0.               0.
              148                3               0.               0.               0.               0.
              148                4               0.               0.               0.               0.
              149                1               0.               0.               0.               0.
              149                2               0.               0.               0.               0.
              149                3               0.               0.               0.               0.
              149                4               0.               0.               0.               0.
              150                1               0.               0.               0.               0.
              150                2               0.               0.               0.               0.
              150                3               0.               0.               0.               0.
              150                4               0.               0.               0.               0.
              151                1               0.               0.               0.               0.
              151                2               0.               0.               0.               0.
              151                3               0.               0.               0.               0.
              151                4               0.               0.               0.               0.
              152                1               0.               0.               0.               0.
              152                2               0.               0.               0.               0.
              152                3               0.               0.               0.               0.
              152                4               0.               0.               0.               0.


********************************************************************************
Field Output Report, written Mon May 12 10:41:48 2025

Source 1
---------

   ODB: C:/lnms/Vid/CrossHoleSym2/CrossHoleSym2brezU.odb
   Step: loading
   Frame: Increment      1: Step Time =   0.1000

Loc 1 : Integration point values from source 1

Output sorted by column "Element Label".

Field Output reported at integration points for part: SPECIMEN-1

          Element              Int            S.S11            S.S22            S.S33            S.S12
            Label               Pt           @Loc 1           @Loc 1           @Loc 1           @Loc 1
-------------------------------------------------------------------------------------------------------
                1                1       119.964569       76.9380569               0.      -71.0493393
                1                2       107.250374       80.5006332               0.      -74.9749069
                1                3       107.542404       68.1923447               0.      -71.3249359
                1                4       95.7709656       71.5234909               0.      -74.8096619
                2                1       117.991371       92.0775528               0.      -63.5349503
                2                2       108.028740       89.7913284               0.      -67.0533371
                2                3       111.837524       89.4336472               0.      -64.0764771
                2                4       101.959175       86.9070816               0.      -67.1971512
                3                1       100.552521       93.5946884               0.      -66.1060104
                3                2       101.136894       99.8319321               0.      -65.8993149
                3                3       108.423584       106.270477               0.      -61.4153404
                3                4       109.653214       112.772285               0.      -60.6118355
                4                1       92.5231018       98.1049728               0.      -69.5795135
                4                2       98.3387527       107.956078               0.      -69.7347565
                4                3       92.0467834       109.443542               0.      -66.1721802
                4                4       97.4061890       119.570305               0.      -65.8891525
                5                1       77.7470245       95.3420181               0.      -79.3932495
                5                2       90.7302933       112.942833               0.      -80.0516663
                5                3       74.2471237       110.172791               0.      -74.9322281
                5                4       87.4062805       129.042313               0.      -75.0491638
                6                1       42.3860664       124.310959               0.      -57.2158928
                6                2       59.0416298       144.369705               0.      -45.5241013
                6                3       33.3077240       105.422234               0.      -61.2220154
                6                4       50.3704796       127.091042               0.      -50.4504967
                7                1       23.7754288       125.546188               0.      -23.2937565
                7                2       33.9211502       135.626404               0.      -7.78356886
                7                3      -4.09342718       98.8144379               0.      -31.6321430
                7                4       12.7448139       119.278831               0.      -11.9514170
                8                1       71.0750732       116.027039               0.      -54.5781670
                8                2       77.8602142       131.366028               0.      -45.3006783
                8                3       64.5417099       100.359962               0.      -57.7055435
                8                4       72.0995483       116.963577               0.      -49.0094032
                9                1       55.0334091       115.263084               0.      -28.3881912
                9                2       62.8588333       128.585541               0.      -8.72649765
                9                3       40.2918320       87.7042923               0.      -43.0586014
                9                4       57.7143478       119.886871               0.      -14.3780613
               10                1       91.8798294       98.7853088               0.      -51.7213097
               10                2       83.9114304       117.095146               0.      -42.9761162
               10                3       83.3797379       71.4386368               0.      -55.0490799
               10                4       76.5717392       91.8909607               0.      -48.1775322
               11                1       83.3680344       107.105034               0.      -22.7262592
               11                2       87.3297119       116.145599               0.      -7.64917326
               11                3       86.9787292       89.5293045               0.      -31.1291828
               11                4       95.9735031       106.570511               0.      -11.5161552
               12                1       108.120758       96.6465683               0.      -5.89980888
               12                2       113.697617       85.0076523               0.      -4.85867882
               12                3       109.391937       91.1100922               0.      -11.7694521
               12                4       113.538734       79.2128143               0.      -12.0574684
               13                1       119.586067       70.7777786               0.  -283.688903E-03
               13                2       119.916916       61.2979736               0.      -1.16288471
               13                3       119.313538       69.8818359               0.      -3.60777402
               13                4       119.424652       60.7503395               0.      -4.87191677
               14                1       80.1302109       94.8665543               0.      -41.0294876
               14                2       100.202904       73.4873505               0.      -34.9854164
               14                3       110.173012       88.4923401               0.      -36.0775986
               14                4       121.396973       68.1742477               0.      -28.2626686
               15                1       113.750053       59.1019325               0.      -19.6576977
               15                2       118.547668       58.0337830               0.      -10.2692823
               15                3       117.555153       60.2806931               0.      -15.9064388
               15                4       120.645836       59.2444229               0.      -8.66723156
               16                1       121.236313       54.8049736               0.      -11.4359198
               16                2       127.430916       59.5608482               0.      -5.84580040
               16                3       101.264702       33.2101784               0.      -33.4710388
               16                4       118.000412       46.0747795               0.      -22.0555687
               17                1       130.676559       51.9973526               0.      -4.50657654
               17                2       140.598160       60.5071678               0.       3.81709623
               17                3       92.1882095      -9.76596260               0.      -32.8563766
               17                4       124.841972       19.9724522               0.      -16.0365543
               18                1       112.314896       57.2618294               0.      -42.0629501
               18                2       134.717850       69.0841675               0.      -35.2791367
               18                3       86.3691406       53.7376518               0.      -56.5402031
               18                4       114.105560       67.0809402               0.      -50.2138863
               19                1       124.255234       37.2550583               0.      -45.6271744
               19                2       139.805023       47.9010963               0.      -41.7336349
               19                3       105.663605       28.2098808               0.      -56.3567123
               19                4       122.992027       39.4530907               0.      -52.9448471
               20                1       129.087692       87.2641449               0.      -75.0791473
               20                2       112.993301       90.8727341               0.      -80.0853119
               20                3       110.078140       73.9513321               0.      -74.9563751
               20                4       95.4144745       77.8341293               0.      -79.4175644
               21                1       119.631844       97.4026566               0.      -65.8376083
               21                2       108.086227       98.3455200               0.      -69.6986923
               21                3       109.476639       92.0359802               0.      -66.1238556
               21                4       98.0396194       92.4321060               0.      -69.5453110
               22                1       112.671082       109.716835               0.      -60.5795403
               22                2       99.6709366       101.025406               0.      -65.8977737
               22                3       106.244698       108.543373               0.      -61.3879967
               22                4       93.5602875       100.534645               0.      -66.1060944
               23                1       86.8655853       101.971481               0.      -67.2036819
               23                2       89.7930603       108.062767               0.      -67.0621262
               23                3       89.3074493       111.841370               0.      -64.0916367
               23                4       91.9834824       118.025070               0.      -63.5508461
               24                1       71.5445099       95.8293076               0.      -74.8145142
               24                2       80.5128708       107.283806               0.      -74.9811478
               24                3       68.1760559       107.556595               0.      -71.3407822
               24                4       76.9161377       119.966599               0.      -71.0664978
               25                1       39.4656105       122.997597               0.      -52.9353409
               25                2       47.8691177       139.809692               0.      -41.7144241
               25                3       28.1891689       105.634926               0.      -56.3543282
               25                4       37.1976585       124.242195               0.      -45.6095314
               26                1       19.9903297       124.859467               0.      -16.0168591
               26                2       60.5139503       140.602722               0.       3.82792902
               26                3      -9.76990032       92.1977539               0.      -32.8459435
               26                4       52.0051994       130.684647               0.      -4.49276018
               27                1       67.0678711       114.128899               0.      -50.1789551
               27                2       69.0505600       134.753036               0.      -35.2282600
               27                3       53.6894112       86.3064117               0.      -56.5405006
               27                4       57.2147636       112.345833               0.      -42.0219460
               28                1       46.0492172       118.017944               0.      -22.0285015
               28                2       59.5582619       127.439560               0.      -5.82948542
               28                3       33.1696625       101.282494               0.      -33.4509163
               28                4       54.8014717       121.247559               0.      -11.4219217
               29                1       59.2492905       120.653885               0.      -8.66248894
               29                2       58.0375061       118.552444               0.      -10.2664127
               29                3       60.2846260       117.563744               0.      -15.9009428
               29                4       59.1041718       113.750160               0.      -19.6612167
               30                1       60.7513008       119.427101               0.      -4.87099409
               30                2       61.2942314       119.917587               0.      -1.16291273
               30                3       69.8748932       119.315720               0.      -3.61474228
               30                4       70.7612457       119.588226               0.  -293.530017E-03
               31                1       68.1208572       121.468208               0.      -28.1823883
               31                2       73.4152374       100.301163               0.      -34.9323654
               31                3       88.3595810       110.245880               0.      -36.0263443
               31                4       94.7402649       80.1294937               0.      -41.0421410
               32                1       79.1895294       113.604195               0.      -11.9604187
               32                2       84.9308472       113.732437               0.      -4.83546305
               32                3       90.9890060       109.484116               0.      -11.7353649
               32                4       96.4918823       108.209206               0.      -5.92896891
               33                1       106.462952       96.0844421               0.      -11.5251112
               33                2       116.054047       87.4346848               0.      -7.68481779
               33                3       89.6335678       87.1578445               0.      -30.9991970
               33                4       107.083817       83.4999084               0.      -22.6815510
               34                1       119.814957       57.5678902               0.      -14.4471111
               34                2       128.604248       62.8008194               0.      -8.70334244
               34                3       87.8379745       39.9685135               0.      -42.9706192
               34                4       115.263710       54.7650604               0.      -28.3605995
               35                1       119.373672       12.8647690               0.      -11.9490623
               35                2       135.624130       33.8945923               0.      -7.75414658
               35                3       98.7589264      -4.26696348               0.      -31.6080036
               35                4       125.540413       23.6249371               0.      -23.1910553
               36                1       91.7412643       76.6179886               0.      -48.1711197
               36                2       116.920143       83.9189377               0.      -42.9835129
               36                3       71.2458344       83.5310287               0.      -55.0115776
               36                4       98.6427917       92.0198746               0.      -51.7017059
               37                1       116.831940       72.3024216               0.      -49.0087395
               37                2       131.430527       78.0568008               0.      -45.2289543
               37                3       100.246994       64.3947144               0.      -57.7042809
               37                4       116.036812       70.8951340               0.      -54.5268402
               38                1       127.202354       49.8906937               0.      -50.3099136
               38                2       144.414001       58.6817894               0.      -45.4182167
               38                3       105.486717       33.0579987               0.      -61.1260719
               38                4       124.392342       42.3073540               0.      -57.1293144
               39                1       76.9380569       119.964569               0.       71.0493393
               39                2       80.5006332       107.250374               0.       74.9749069
               39                3       68.1923447       107.542404               0.       71.3249359
               39                4       71.5234909       95.7709656               0.       74.8096619
               40                1       92.0775528       117.991371               0.       63.5349503
               40                2       89.7913284       108.028740               0.       67.0533371
               40                3       89.4336472       111.837524               0.       64.0764771
               40                4       86.9070816       101.959175               0.       67.1971512
               41                1       93.5946884       100.552521               0.       66.1060104
               41                2       99.8319321       101.136894               0.       65.8993149
               41                3       106.270477       108.423584               0.       61.4153404
               41                4       112.772285       109.653214               0.       60.6118355
               42                1       98.1049728       92.5231018               0.       69.5795135
               42                2       107.956078       98.3387527               0.       69.7347565
               42                3       109.443542       92.0467834               0.       66.1721802
               42                4       119.570305       97.4061890               0.       65.8891525
               43                1       95.3420181       77.7470245               0.       79.3932495
               43                2       112.942833       90.7302933               0.       80.0516663
               43                3       110.172791       74.2471237               0.       74.9322281
               43                4       129.042313       87.4062805               0.       75.0491638
               44                1       124.310959       42.3860664               0.       57.2158928
               44                2       144.369705       59.0416298               0.       45.5241013
               44                3       105.422234       33.3077240               0.       61.2220154
               44                4       127.091042       50.3704796               0.       50.4504967
               45                1       125.546188       23.7754288               0.       23.2937565
               45                2       135.626404       33.9211502               0.       7.78356886
               45                3       98.8144379      -4.09342718               0.       31.6321430
               45                4       119.278831       12.7448139               0.       11.9514170
               46                1       116.027039       71.0750732               0.       54.5781670
               46                2       131.366028       77.8602142               0.       45.3006783
               46                3       100.359962       64.5417099               0.       57.7055435
               46                4       116.963577       72.0995483               0.       49.0094032
               47                1       115.263084       55.0334091               0.       28.3881912
               47                2       128.585541       62.8588333               0.       8.72649765
               47                3       87.7042923       40.2918320               0.       43.0586014
               47                4       119.886871       57.7143478               0.       14.3780613
               48                1       98.7853088       91.8798294               0.       51.7213097
               48                2       117.095146       83.9114304               0.       42.9761162
               48                3       71.4386368       83.3797379               0.       55.0490799
               48                4       91.8909607       76.5717392               0.       48.1775322
               49                1       107.105034       83.3680344               0.       22.7262592
               49                2       116.145599       87.3297119               0.       7.64917326
               49                3       89.5293045       86.9787292               0.       31.1291828
               49                4       106.570511       95.9735031               0.       11.5161552
               50                1       96.6465683       108.120758               0.       5.89980888
               50                2       85.0076523       113.697617               0.       4.85867882
               50                3       91.1100922       109.391937               0.       11.7694521
               50                4       79.2128143       113.538734               0.       12.0574684
               51                1       70.7777786       119.586067               0.   283.688903E-03
               51                2       61.2979736       119.916916               0.       1.16288471
               51                3       69.8818359       119.313538               0.       3.60777402
               51                4       60.7503395       119.424652               0.       4.87191677
               52                1       94.8665543       80.1302109               0.       41.0294876
               52                2       73.4873505       100.202904               0.       34.9854164
               52                3       88.4923401       110.173012               0.       36.0775986
               52                4       68.1742477       121.396973               0.       28.2626686
               53                1       59.1019325       113.750053               0.       19.6576977
               53                2       58.0337830       118.547668               0.       10.2692823
               53                3       60.2806931       117.555153               0.       15.9064388
               53                4       59.2444229       120.645836               0.       8.66723156
               54                1       54.8049736       121.236313               0.       11.4359198
               54                2       59.5608482       127.430916               0.       5.84580040
               54                3       33.2101784       101.264702               0.       33.4710388
               54                4       46.0747795       118.000412               0.       22.0555687
               55                1       51.9973526       130.676559               0.       4.50657654
               55                2       60.5071678       140.598160               0.      -3.81709623
               55                3      -9.76596260       92.1882095               0.       32.8563766
               55                4       19.9724522       124.841972               0.       16.0365543
               56                1       57.2618294       112.314896               0.       42.0629501
               56                2       69.0841675       134.717850               0.       35.2791367
               56                3       53.7376518       86.3691406               0.       56.5402031
               56                4       67.0809402       114.105560               0.       50.2138863
               57                1       37.2550583       124.255234               0.       45.6271744
               57                2       47.9010963       139.805023               0.       41.7336349
               57                3       28.2098808       105.663605               0.       56.3567123
               57                4       39.4530907       122.992027               0.       52.9448471
               58                1       87.2641449       129.087692               0.       75.0791473
               58                2       90.8727341       112.993301               0.       80.0853119
               58                3       73.9513321       110.078140               0.       74.9563751
               58                4       77.8341293       95.4144745               0.       79.4175644
               59                1       97.4026566       119.631844               0.       65.8376083
               59                2       98.3455200       108.086227               0.       69.6986923
               59                3       92.0359802       109.476639               0.       66.1238556
               59                4       92.4321060       98.0396194               0.       69.5453110
               60                1       109.716835       112.671082               0.       60.5795403
               60                2       101.025406       99.6709366               0.       65.8977737
               60                3       108.543373       106.244698               0.       61.3879967
               60                4       100.534645       93.5602875               0.       66.1060944
               61                1       101.971481       86.8655853               0.       67.2036819
               61                2       108.062767       89.7930603               0.       67.0621262
               61                3       111.841370       89.3074493               0.       64.0916367
               61                4       118.025070       91.9834824               0.       63.5508461
               62                1       95.8293076       71.5445099               0.       74.8145142
               62                2       107.283806       80.5128708               0.       74.9811478
               62                3       107.556595       68.1760559               0.       71.3407822
               62                4       119.966599       76.9161377               0.       71.0664978
               63                1       122.997597       39.4656105               0.       52.9353409
               63                2       139.809692       47.8691177               0.       41.7144241
               63                3       105.634926       28.1891689               0.       56.3543282
               63                4       124.242195       37.1976585               0.       45.6095314
               64                1       124.859467       19.9903297               0.       16.0168591
               64                2       140.602722       60.5139503               0.      -3.82792902
               64                3       92.1977539      -9.76990032               0.       32.8459435
               64                4       130.684647       52.0051994               0.       4.49276018
               65                1       114.128899       67.0678711               0.       50.1789551
               65                2       134.753036       69.0505600               0.       35.2282600
               65                3       86.3064117       53.6894112               0.       56.5405006
               65                4       112.345833       57.2147636               0.       42.0219460
               66                1       118.017944       46.0492172               0.       22.0285015
               66                2       127.439560       59.5582619               0.       5.82948542
               66                3       101.282494       33.1696625               0.       33.4509163
               66                4       121.247559       54.8014717               0.       11.4219217
               67                1       120.653885       59.2492905               0.       8.66248894
               67                2       118.552444       58.0375061               0.       10.2664127
               67                3       117.563744       60.2846260               0.       15.9009428
               67                4       113.750160       59.1041718               0.       19.6612167
               68                1       119.427101       60.7513008               0.       4.87099409
               68                2       119.917587       61.2942314               0.       1.16291273
               68                3       119.315720       69.8748932               0.       3.61474228
               68                4       119.588226       70.7612457               0.   293.530017E-03
               69                1       121.468208       68.1208572               0.       28.1823883
               69                2       100.301163       73.4152374               0.       34.9323654
               69                3       110.245880       88.3595810               0.       36.0263443
               69                4       80.1294937       94.7402649               0.       41.0421410
               70                1       113.604195       79.1895294               0.       11.9604187
               70                2       113.732437       84.9308472               0.       4.83546305
               70                3       109.484116       90.9890060               0.       11.7353649
               70                4       108.209206       96.4918823               0.       5.92896891
               71                1       96.0844421       106.462952               0.       11.5251112
               71                2       87.4346848       116.054047               0.       7.68481779
               71                3       87.1578445       89.6335678               0.       30.9991970
               71                4       83.4999084       107.083817               0.       22.6815510
               72                1       57.5678902       119.814957               0.       14.4471111
               72                2       62.8008194       128.604248               0.       8.70334244
               72                3       39.9685135       87.8379745               0.       42.9706192
               72                4       54.7650604       115.263710               0.       28.3605995
               73                1       12.8647690       119.373672               0.       11.9490623
               73                2       33.8945923       135.624130               0.       7.75414658
               73                3      -4.26696348       98.7589264               0.       31.6080036
               73                4       23.6249371       125.540413               0.       23.1910553
               74                1       76.6179886       91.7412643               0.       48.1711197
               74                2       83.9189377       116.920143               0.       42.9835129
               74                3       83.5310287       71.2458344               0.       55.0115776
               74                4       92.0198746       98.6427917               0.       51.7017059
               75                1       72.3024216       116.831940               0.       49.0087395
               75                2       78.0568008       131.430527               0.       45.2289543
               75                3       64.3947144       100.246994               0.       57.7042809
               75                4       70.8951340       116.036812               0.       54.5268402
               76                1       49.8906937       127.202354               0.       50.3099136
               76                2       58.6817894       144.414001               0.       45.4182167
               76                3       33.0579987       105.486717               0.       61.1260719
               76                4       42.3073540       124.392342               0.       57.1293144
               77                1       129.087692       87.2641449               0.      -75.0791473
               77                2       112.993301       90.8727341               0.      -80.0853119
               77                3       110.078140       73.9513321               0.      -74.9563751
               77                4       95.4144745       77.8341293               0.      -79.4175644
               78                1       119.631844       97.4026566               0.      -65.8376083
               78                2       108.086227       98.3455200               0.      -69.6986923
               78                3       109.476639       92.0359802               0.      -66.1238556
               78                4       98.0396194       92.4321060               0.      -69.5453110
               79                1       112.671082       109.716835               0.      -60.5795403
               79                2       99.6709366       101.025406               0.      -65.8977737
               79                3       106.244698       108.543373               0.      -61.3879967
               79                4       93.5602875       100.534645               0.      -66.1060944
               80                1       86.8655853       101.971481               0.      -67.2036819
               80                2       89.7930603       108.062767               0.      -67.0621262
               80                3       89.3074493       111.841370               0.      -64.0916367
               80                4       91.9834824       118.025070               0.      -63.5508461
               81                1       71.5445099       95.8293076               0.      -74.8145142
               81                2       80.5128708       107.283806               0.      -74.9811478
               81                3       68.1760559       107.556595               0.      -71.3407822
               81                4       76.9161377       119.966599               0.      -71.0664978
               82                1       39.4656105       122.997597               0.      -52.9353409
               82                2       47.8691177       139.809692               0.      -41.7144241
               82                3       28.1891689       105.634926               0.      -56.3543282
               82                4       37.1976585       124.242195               0.      -45.6095314
               83                1       19.9903297       124.859467               0.      -16.0168591
               83                2       60.5139503       140.602722               0.       3.82792902
               83                3      -9.76990032       92.1977539               0.      -32.8459435
               83                4       52.0051994       130.684647               0.      -4.49276018
               84                1       67.0678711       114.128899               0.      -50.1789551
               84                2       69.0505600       134.753036               0.      -35.2282600
               84                3       53.6894112       86.3064117               0.      -56.5405006
               84                4       57.2147636       112.345833               0.      -42.0219460
               85                1       46.0492172       118.017944               0.      -22.0285015
               85                2       59.5582619       127.439560               0.      -5.82948542
               85                3       33.1696625       101.282494               0.      -33.4509163
               85                4       54.8014717       121.247559               0.      -11.4219217
               86                1       59.2492905       120.653885               0.      -8.66248894
               86                2       58.0375061       118.552444               0.      -10.2664127
               86                3       60.2846260       117.563744               0.      -15.9009428
               86                4       59.1041718       113.750160               0.      -19.6612167
               87                1       60.7513008       119.427101               0.      -4.87099409
               87                2       61.2942314       119.917587               0.      -1.16291273
               87                3       69.8748932       119.315720               0.      -3.61474228
               87                4       70.7612457       119.588226               0.  -293.530017E-03
               88                1       68.1208572       121.468208               0.      -28.1823883
               88                2       73.4152374       100.301163               0.      -34.9323654
               88                3       88.3595810       110.245880               0.      -36.0263443
               88                4       94.7402649       80.1294937               0.      -41.0421410
               89                1       79.1895294       113.604195               0.      -11.9604187
               89                2       84.9308472       113.732437               0.      -4.83546305
               89                3       90.9890060       109.484116               0.      -11.7353649
               89                4       96.4918823       108.209206               0.      -5.92896891
               90                1       106.462952       96.0844421               0.      -11.5251112
               90                2       116.054047       87.4346848               0.      -7.68481779
               90                3       89.6335678       87.1578445               0.      -30.9991970
               90                4       107.083817       83.4999084               0.      -22.6815510
               91                1       119.814957       57.5678902               0.      -14.4471111
               91                2       128.604248       62.8008194               0.      -8.70334244
               91                3       87.8379745       39.9685135               0.      -42.9706192
               91                4       115.263710       54.7650604               0.      -28.3605995
               92                1       119.373672       12.8647690               0.      -11.9490623
               92                2       135.624130       33.8945923               0.      -7.75414658
               92                3       98.7589264      -4.26696348               0.      -31.6080036
               92                4       125.540413       23.6249371               0.      -23.1910553
               93                1       91.7412643       76.6179886               0.      -48.1711197
               93                2       116.920143       83.9189377               0.      -42.9835129
               93                3       71.2458344       83.5310287               0.      -55.0115776
               93                4       98.6427917       92.0198746               0.      -51.7017059
               94                1       116.831940       72.3024216               0.      -49.0087395
               94                2       131.430527       78.0568008               0.      -45.2289543
               94                3       100.246994       64.3947144               0.      -57.7042809
               94                4       116.036812       70.8951340               0.      -54.5268402
               95                1       127.202354       49.8906937               0.      -50.3099136
               95                2       144.414001       58.6817894               0.      -45.4182167
               95                3       105.486717       33.0579987               0.      -61.1260719
               95                4       124.392342       42.3073540               0.      -57.1293144
               96                1       87.2641449       129.087692               0.       75.0791473
               96                2       90.8727341       112.993301               0.       80.0853119
               96                3       73.9513321       110.078140               0.       74.9563751
               96                4       77.8341293       95.4144745               0.       79.4175644
               97                1       97.4026566       119.631844               0.       65.8376083
               97                2       98.3455200       108.086227               0.       69.6986923
               97                3       92.0359802       109.476639               0.       66.1238556
               97                4       92.4321060       98.0396194               0.       69.5453110
               98                1       109.716835       112.671082               0.       60.5795403
               98                2       101.025406       99.6709366               0.       65.8977737
               98                3       108.543373       106.244698               0.       61.3879967
               98                4       100.534645       93.5602875               0.       66.1060944
               99                1       101.971481       86.8655853               0.       67.2036819
               99                2       108.062767       89.7930603               0.       67.0621262
               99                3       111.841370       89.3074493               0.       64.0916367
               99                4       118.025070       91.9834824               0.       63.5508461
              100                1       95.8293076       71.5445099               0.       74.8145142
              100                2       107.283806       80.5128708               0.       74.9811478
              100                3       107.556595       68.1760559               0.       71.3407822
              100                4       119.966599       76.9161377               0.       71.0664978
              101                1       122.997597       39.4656105               0.       52.9353409
              101                2       139.809692       47.8691177               0.       41.7144241
              101                3       105.634926       28.1891689               0.       56.3543282
              101                4       124.242195       37.1976585               0.       45.6095314
              102                1       124.859467       19.9903297               0.       16.0168591
              102                2       140.602722       60.5139503               0.      -3.82792902
              102                3       92.1977539      -9.76990032               0.       32.8459435
              102                4       130.684647       52.0051994               0.       4.49276018
              103                1       114.128899       67.0678711               0.       50.1789551
              103                2       134.753036       69.0505600               0.       35.2282600
              103                3       86.3064117       53.6894112               0.       56.5405006
              103                4       112.345833       57.2147636               0.       42.0219460
              104                1       118.017944       46.0492172               0.       22.0285015
              104                2       127.439560       59.5582619               0.       5.82948542
              104                3       101.282494       33.1696625               0.       33.4509163
              104                4       121.247559       54.8014717               0.       11.4219217
              105                1       120.653885       59.2492905               0.       8.66248894
              105                2       118.552444       58.0375061               0.       10.2664127
              105                3       117.563744       60.2846260               0.       15.9009428
              105                4       113.750160       59.1041718               0.       19.6612167
              106                1       119.427101       60.7513008               0.       4.87099409
              106                2       119.917587       61.2942314               0.       1.16291273
              106                3       119.315720       69.8748932               0.       3.61474228
              106                4       119.588226       70.7612457               0.   293.530017E-03
              107                1       121.468208       68.1208572               0.       28.1823883
              107                2       100.301163       73.4152374               0.       34.9323654
              107                3       110.245880       88.3595810               0.       36.0263443
              107                4       80.1294937       94.7402649               0.       41.0421410
              108                1       113.604195       79.1895294               0.       11.9604187
              108                2       113.732437       84.9308472               0.       4.83546305
              108                3       109.484116       90.9890060               0.       11.7353649
              108                4       108.209206       96.4918823               0.       5.92896891
              109                1       96.0844421       106.462952               0.       11.5251112
              109                2       87.4346848       116.054047               0.       7.68481779
              109                3       87.1578445       89.6335678               0.       30.9991970
              109                4       83.4999084       107.083817               0.       22.6815510
              110                1       57.5678902       119.814957               0.       14.4471111
              110                2       62.8008194       128.604248               0.       8.70334244
              110                3       39.9685135       87.8379745               0.       42.9706192
              110                4       54.7650604       115.263710               0.       28.3605995
              111                1       12.8647690       119.373672               0.       11.9490623
              111                2       33.8945923       135.624130               0.       7.75414658
              111                3      -4.26696348       98.7589264               0.       31.6080036
              111                4       23.6249371       125.540413               0.       23.1910553
              112                1       76.6179886       91.7412643               0.       48.1711197
              112                2       83.9189377       116.920143               0.       42.9835129
              112                3       83.5310287       71.2458344               0.       55.0115776
              112                4       92.0198746       98.6427917               0.       51.7017059
              113                1       72.3024216       116.831940               0.       49.0087395
              113                2       78.0568008       131.430527               0.       45.2289543
              113                3       64.3947144       100.246994               0.       57.7042809
              113                4       70.8951340       116.036812               0.       54.5268402
              114                1       49.8906937       127.202354               0.       50.3099136
              114                2       58.6817894       144.414001               0.       45.4182167
              114                3       33.0579987       105.486717               0.       61.1260719
              114                4       42.3073540       124.392342               0.       57.1293144
              115                1       76.9380569       119.964569               0.       71.0493393
              115                2       80.5006332       107.250374               0.       74.9749069
              115                3       68.1923447       107.542404               0.       71.3249359
              115                4       71.5234909       95.7709656               0.       74.8096619
              116                1       92.0775528       117.991371               0.       63.5349503
              116                2       89.7913284       108.028740               0.       67.0533371
              116                3       89.4336472       111.837524               0.       64.0764771
              116                4       86.9070816       101.959175               0.       67.1971512
              117                1       93.5946884       100.552521               0.       66.1060104
              117                2       99.8319321       101.136894               0.       65.8993149
              117                3       106.270477       108.423584               0.       61.4153404
              117                4       112.772285       109.653214               0.       60.6118355
              118                1       98.1049728       92.5231018               0.       69.5795135
              118                2       107.956078       98.3387527               0.       69.7347565
              118                3       109.443542       92.0467834               0.       66.1721802
              118                4       119.570305       97.4061890               0.       65.8891525
              119                1       95.3420181       77.7470245               0.       79.3932495
              119                2       112.942833       90.7302933               0.       80.0516663
              119                3       110.172791       74.2471237               0.       74.9322281
              119                4       129.042313       87.4062805               0.       75.0491638
              120                1       124.310959       42.3860664               0.       57.2158928
              120                2       144.369705       59.0416298               0.       45.5241013
              120                3       105.422234       33.3077240               0.       61.2220154
              120                4       127.091042       50.3704796               0.       50.4504967
              121                1       125.546188       23.7754288               0.       23.2937565
              121                2       135.626404       33.9211502               0.       7.78356886
              121                3       98.8144379      -4.09342718               0.       31.6321430
              121                4       119.278831       12.7448139               0.       11.9514170
              122                1       116.027039       71.0750732               0.       54.5781670
              122                2       131.366028       77.8602142               0.       45.3006783
              122                3       100.359962       64.5417099               0.       57.7055435
              122                4       116.963577       72.0995483               0.       49.0094032
              123                1       115.263084       55.0334091               0.       28.3881912
              123                2       128.585541       62.8588333               0.       8.72649765
              123                3       87.7042923       40.2918320               0.       43.0586014
              123                4       119.886871       57.7143478               0.       14.3780613
              124                1       98.7853088       91.8798294               0.       51.7213097
              124                2       117.095146       83.9114304               0.       42.9761162
              124                3       71.4386368       83.3797379               0.       55.0490799
              124                4       91.8909607       76.5717392               0.       48.1775322
              125                1       107.105034       83.3680344               0.       22.7262592
              125                2       116.145599       87.3297119               0.       7.64917326
              125                3       89.5293045       86.9787292               0.       31.1291828
              125                4       106.570511       95.9735031               0.       11.5161552
              126                1       96.6465683       108.120758               0.       5.89980888
              126                2       85.0076523       113.697617               0.       4.85867882
              126                3       91.1100922       109.391937               0.       11.7694521
              126                4       79.2128143       113.538734               0.       12.0574684
              127                1       70.7777786       119.586067               0.   283.688903E-03
              127                2       61.2979736       119.916916               0.       1.16288471
              127                3       69.8818359       119.313538               0.       3.60777402
              127                4       60.7503395       119.424652               0.       4.87191677
              128                1       94.8665543       80.1302109               0.       41.0294876
              128                2       73.4873505       100.202904               0.       34.9854164
              128                3       88.4923401       110.173012               0.       36.0775986
              128                4       68.1742477       121.396973               0.       28.2626686
              129                1       59.1019325       113.750053               0.       19.6576977
              129                2       58.0337830       118.547668               0.       10.2692823
              129                3       60.2806931       117.555153               0.       15.9064388
              129                4       59.2444229       120.645836               0.       8.66723156
              130                1       54.8049736       121.236313               0.       11.4359198
              130                2       59.5608482       127.430916               0.       5.84580040
              130                3       33.2101784       101.264702               0.       33.4710388
              130                4       46.0747795       118.000412               0.       22.0555687
              131                1       51.9973526       130.676559               0.       4.50657654
              131                2       60.5071678       140.598160               0.      -3.81709623
              131                3      -9.76596260       92.1882095               0.       32.8563766
              131                4       19.9724522       124.841972               0.       16.0365543
              132                1       57.2618294       112.314896               0.       42.0629501
              132                2       69.0841675       134.717850               0.       35.2791367
              132                3       53.7376518       86.3691406               0.       56.5402031
              132                4       67.0809402       114.105560               0.       50.2138863
              133                1       37.2550583       124.255234               0.       45.6271744
              133                2       47.9010963       139.805023               0.       41.7336349
              133                3       28.2098808       105.663605               0.       56.3567123
              133                4       39.4530907       122.992027               0.       52.9448471
              134                1       119.964569       76.9380569               0.      -71.0493393
              134                2       107.250374       80.5006332               0.      -74.9749069
              134                3       107.542404       68.1923447               0.      -71.3249359
              134                4       95.7709656       71.5234909               0.      -74.8096619
              135                1       117.991371       92.0775528               0.      -63.5349503
              135                2       108.028740       89.7913284               0.      -67.0533371
              135                3       111.837524       89.4336472               0.      -64.0764771
              135                4       101.959175       86.9070816               0.      -67.1971512
              136                1       100.552521       93.5946884               0.      -66.1060104
              136                2       101.136894       99.8319321               0.      -65.8993149
              136                3       108.423584       106.270477               0.      -61.4153404
              136                4       109.653214       112.772285               0.      -60.6118355
              137                1       92.5231018       98.1049728               0.      -69.5795135
              137                2       98.3387527       107.956078               0.      -69.7347565
              137                3       92.0467834       109.443542               0.      -66.1721802
              137                4       97.4061890       119.570305               0.      -65.8891525
              138                1       77.7470245       95.3420181               0.      -79.3932495
              138                2       90.7302933       112.942833               0.      -80.0516663
              138                3       74.2471237       110.172791               0.      -74.9322281
              138                4       87.4062805       129.042313               0.      -75.0491638
              139                1       42.3860664       124.310959               0.      -57.2158928
              139                2       59.0416298       144.369705               0.      -45.5241013
              139                3       33.3077240       105.422234               0.      -61.2220154
              139                4       50.3704796       127.091042               0.      -50.4504967
              140                1       23.7754288       125.546188               0.      -23.2937565
              140                2       33.9211502       135.626404               0.      -7.78356886
              140                3      -4.09342718       98.8144379               0.      -31.6321430
              140                4       12.7448139       119.278831               0.      -11.9514170
              141                1       71.0750732       116.027039               0.      -54.5781670
              141                2       77.8602142       131.366028               0.      -45.3006783
              141                3       64.5417099       100.359962               0.      -57.7055435
              141                4       72.0995483       116.963577               0.      -49.0094032
              142                1       55.0334091       115.263084               0.      -28.3881912
              142                2       62.8588333       128.585541               0.      -8.72649765
              142                3       40.2918320       87.7042923               0.      -43.0586014
              142                4       57.7143478       119.886871               0.      -14.3780613
              143                1       91.8798294       98.7853088               0.      -51.7213097
              143                2       83.9114304       117.095146               0.      -42.9761162
              143                3       83.3797379       71.4386368               0.      -55.0490799
              143                4       76.5717392       91.8909607               0.      -48.1775322
              144                1       83.3680344       107.105034               0.      -22.7262592
              144                2       87.3297119       116.145599               0.      -7.64917326
              144                3       86.9787292       89.5293045               0.      -31.1291828
              144                4       95.9735031       106.570511               0.      -11.5161552
              145                1       108.120758       96.6465683               0.      -5.89980888
              145                2       113.697617       85.0076523               0.      -4.85867882
              145                3       109.391937       91.1100922               0.      -11.7694521
              145                4       113.538734       79.2128143               0.      -12.0574684
              146                1       119.586067       70.7777786               0.  -283.688903E-03
              146                2       119.916916       61.2979736               0.      -1.16288471
              146                3       119.313538       69.8818359               0.      -3.60777402
              146                4       119.424652       60.7503395               0.      -4.87191677
              147                1       80.1302109       94.8665543               0.      -41.0294876
              147                2       100.202904       73.4873505               0.      -34.9854164
              147                3       110.173012       88.4923401               0.      -36.0775986
              147                4       121.396973       68.1742477               0.      -28.2626686
              148                1       113.750053       59.1019325               0.      -19.6576977
              148                2       118.547668       58.0337830               0.      -10.2692823
              148                3       117.555153       60.2806931               0.      -15.9064388
              148                4       120.645836       59.2444229               0.      -8.66723156
              149                1       121.236313       54.8049736               0.      -11.4359198
              149                2       127.430916       59.5608482               0.      -5.84580040
              149                3       101.264702       33.2101784               0.      -33.4710388
              149                4       118.000412       46.0747795               0.      -22.0555687
              150                1       130.676559       51.9973526               0.      -4.50657654
              150                2       140.598160       60.5071678               0.       3.81709623
              150                3       92.1882095      -9.76596260               0.      -32.8563766
              150                4       124.841972       19.9724522               0.      -16.0365543
              151                1       112.314896       57.2618294               0.      -42.0629501
              151                2       134.717850       69.0841675               0.      -35.2791367
              151                3       86.3691406       53.7376518               0.      -56.5402031
              151                4       114.105560       67.0809402               0.      -50.2138863
              152                1       124.255234       37.2550583               0.      -45.6271744
              152                2       139.805023       47.9010963               0.      -41.7336349
              152                3       105.663605       28.2098808               0.      -56.3567123
              152                4       122.992027       39.4530907               0.      -52.9448471


********************************************************************************
Field Output Report, written Mon May 12 10:41:54 2025

Source 1
---------

   ODB: C:/lnms/Vid/CrossHoleSym2/CrossHoleSym2brezU.odb
   Step: loading
   Frame: Increment      2: Step Time =   0.2000

Loc 1 : Integration point values from source 1

Output sorted by column "Element Label".

Field Output reported at integration points for part: SPECIMEN-1

          Element              Int            S.S11            S.S22            S.S33            S.S12
            Label               Pt           @Loc 1           @Loc 1           @Loc 1           @Loc 1
-------------------------------------------------------------------------------------------------------
                1                1       152.232727       94.8310471               0.      -92.9915085
                1                2       135.924362       107.863342               0.      -97.1182556
                1                3       132.002853       78.6561203               0.      -91.8752747
                1                4       117.002083       91.1648636               0.      -95.6874390
                2                1       142.565735       110.135185               0.      -82.4771881
                2                2       131.577271       113.309700               0.      -85.1744843
                2                3       133.739120       104.879707               0.      -82.3872681
                2                4       122.567940       106.869568               0.      -84.7345734
                3                1       121.409164       114.873901               0.      -82.9182510
                3                2       121.997154       120.471283               0.      -83.2815704
                3                3       130.640335       126.700615               0.      -78.6602707
                3                4       132.349899       132.942825               0.      -78.3876648
                4                1       113.118561       120.062210               0.      -87.1627274
                4                2       121.918007       132.405991               0.      -88.5461502
                4                3       109.980179       131.410812               0.      -84.1329422
                4                4       118.075096       144.256790               0.      -85.0934067
                5                1       97.9631958       118.529671               0.      -100.948807
                5                2       118.917213       143.683975               0.      -103.723099
                5                3       86.8165817       135.418793               0.      -96.2163773
                5                4       108.065941       162.636810               0.      -98.6658859
                6                1       63.5952263       160.006683               0.      -74.0044250
                6                2       61.5765991       175.913269               0.      -63.7118034
                6                3       46.8372726       136.298523               0.      -74.8813934
                6                4       45.2249603       152.397202               0.      -64.9423599
                7                1       32.5632057       161.307129               0.      -27.6154118
                7                2       35.5377235       167.944244               0.      -17.1672325
                7                3       15.2026224       139.017593               0.      -29.4634724
                7                4       20.1961002       148.014374               0.      -18.5766621
                8                1       90.8770676       143.782394               0.      -67.6895218
                8                2       90.5943375       156.708328               0.      -60.4634171
                8                3       81.9715424       127.105965               0.      -68.4184952
                8                4       81.9094543       139.859985               0.      -61.6356468
                9                1       69.0447388       145.796967               0.      -28.5808239
                9                2       73.8781662       156.383881               0.      -15.0250311
                9                3       58.7263222       127.236931               0.      -33.5824356
                9                4       65.2073669       140.880890               0.      -17.7816334
               10                1       113.057892       123.721207               0.      -61.8670921
               10                2       112.517052       139.982635               0.      -51.4739914
               10                3       102.731750       97.5222015               0.      -62.6386948
               10                4       102.691200       112.753212               0.      -53.2424927
               11                1       100.174789       128.305893               0.      -23.0199604
               11                2       100.214424       136.752151               0.      -12.2907887
               11                3       101.171768       115.267548               0.      -26.0652027
               11                4       102.194244       125.763466               0.      -13.7260389
               12                1       121.319725       114.990715               0.      -8.02489662
               12                2       124.839874       102.280739               0.      -8.01884651
               12                3       122.302277       110.031487               0.      -14.6809225
               12                4       124.783920       96.9646454               0.      -15.8964396
               13                1       137.722031       89.5079575               0.      -3.28843451
               13                2       137.672897       75.0837021               0.      -2.65515208
               13                3       137.689896       87.5497971               0.      -7.75040007
               13                4       137.447021       74.2770233               0.      -7.81310940
               14                1       118.562057       112.111160               0.      -39.7708015
               14                2       122.775536       88.3995590               0.      -35.1211395
               14                3       137.208084       108.611076               0.      -40.8401337
               14                4       141.008286       87.9239883               0.      -36.7058983
               15                1       135.859482       79.3088150               0.      -17.6786327
               15                2       138.016693       72.2385788               0.      -12.3371105
               15                3       140.596161       79.9552841               0.      -17.5562782
               15                4       142.603851       73.9849014               0.      -13.1049051
               16                1       145.916260       69.6507645               0.      -14.0346107
               16                2       156.336075       75.1028519               0.      -10.5493364
               16                3       137.494522       56.4817810               0.      -24.6190033
               16                4       148.943146       63.1996918               0.      -20.1535606
               17                1       163.305389       69.6022644               0.      -7.63793182
               17                2       180.550797       78.8215561               0.       1.73302555
               17                3       138.442688       15.5809689               0.      -24.5055428
               17                4       161.394547       30.1895199               0.      -12.2830896
               18                1       137.085083       65.0203018               0.      -49.6988983
               18                2       163.549500       80.1903076               0.      -47.9988365
               18                3       122.063705       71.4151840               0.      -61.3886681
               18                4       147.811798       85.7156525               0.      -59.8981781
               19                1       148.026215       29.6179123               0.      -60.3950806
               19                2       167.501801       44.6243744               0.      -61.1187744
               19                3       140.503006       42.6463470               0.      -68.2545624
               19                4       159.292969       57.8715248               0.      -68.9486771
               20                1       162.643051       107.867798               0.      -98.7177200
               20                2       143.745682       119.058075               0.      -103.782219
               20                3       135.281982       86.4965744               0.      -96.2362289
               20                4       118.682404       98.1284409               0.      -100.988129
               21                1       144.350204       118.059631               0.      -85.0401535
               21                2       132.588821       121.982887               0.      -88.5104523
               21                3       131.454605       109.929062               0.      -84.0796509
               21                4       119.987915       113.008736               0.      -87.1069336
               22                1       132.828751       132.440720               0.      -78.3272552
               22                2       120.293884       121.868538               0.      -83.2517929
               22                3       126.687126       130.812653               0.      -78.6189957
               22                4       114.846893       121.409103               0.      -82.9085846
               23                1       106.830978       122.587555               0.      -84.7416153
               23                2       113.311378       131.621429               0.      -85.1902847
               23                3       104.735382       133.734909               0.      -82.4014969
               23                4       110.021652       142.599335               0.      -82.4985504
               24                1       91.1878967       117.061333               0.      -95.7026520
               24                2       107.871506       135.955368               0.      -97.1321869
               24                3       78.6295853       132.015015               0.      -91.8984528
               24                4       94.7938690       152.236038               0.      -93.0133438
               25                1       57.8768539       159.306168               0.      -68.9357910
               25                2       44.5763817       167.500244               0.      -61.1046219
               25                3       42.6460457       140.498260               0.      -68.2399979
               25                4       29.5658112       148.012329               0.      -60.3761215
               26                1       30.2081184       161.405106               0.      -12.2593460
               26                2       78.8272934       180.551376               0.       1.74669194
               26                3       15.5821190       138.450851               0.      -24.4883118
               26                4       69.6090927       163.313446               0.      -7.62345982
               27                1       85.6833649       147.854965               0.      -59.8447609
               27                2       80.1328430       163.583176               0.      -47.9548264
               27                3       71.3814468       122.081367               0.      -61.3472939
               27                4       64.9666443       137.126511               0.      -49.6504745
               28                1       63.1702843       148.949036               0.      -20.1350784
               28                2       75.1003418       156.346268               0.      -10.5363159
               28                3       56.4458961       137.497635               0.      -24.6100006
               28                4       69.6482773       145.928680               0.      -14.0281115
               29                1       73.9859238       142.615997               0.      -13.1025391
               29                2       72.2371674       138.022522               0.      -12.3365974
               29                3       79.9461441       140.606125               0.      -17.5524826
               29                4       79.2989807       135.861145               0.      -17.6788654
               30                1       74.2750015       137.450195               0.      -7.81131124
               30                2       75.0736237       137.673141               0.      -2.65425754
               30                3       87.5344162       137.693604               0.      -7.74784327
               30                4       89.4726639       137.724319               0.      -3.28744483
               31                1       87.8639679       141.086563               0.      -36.6461487
               31                2       88.3321915       122.861130               0.      -35.0744858
               31                3       108.455742       137.263672               0.      -40.7818565
               31                4       111.964546       118.610863               0.      -39.7338333
               32                1       96.9399261       124.873268               0.      -15.8408833
               32                2       102.209457       124.878426               0.      -7.99851656
               32                3       109.956856       122.389297               0.      -14.6675129
               32                4       114.866219       121.367920               0.      -8.04477119
               33                1       125.680191       102.276268               0.      -13.7015038
               33                2       136.661575       100.258034               0.      -12.3082724
               33                3       115.253937       101.369560               0.      -26.0065422
               33                4       128.280365       100.340225               0.      -23.0110035
               34                1       140.778397       65.0903473               0.      -17.8189068
               34                2       156.418228       73.8465881               0.      -15.0111141
               34                3       127.247078       58.4924698               0.      -33.5357285
               34                4       145.764282       68.8228531               0.      -28.5655556
               35                1       148.155273       20.2994061               0.      -18.5709438
               35                2       167.898849       35.4555054               0.      -17.1494179
               35                3       139.102982       15.1520329               0.      -29.3678627
               35                4       161.268951       32.3781166               0.      -27.4788418
               36                1       112.565193       102.849060               0.      -53.1897392
               36                2       139.710556       112.624985               0.      -51.4402199
               36                3       97.3339157       102.911636               0.      -62.5870399
               36                4       123.532211       113.226967               0.      -61.8326492
               37                1       139.792572       82.0591202               0.      -61.5578995
               37                2       156.933350       90.8617325               0.      -60.3182716
               37                3       126.930580       81.7774200               0.      -68.3985138
               37                4       143.818024       90.7412720               0.      -67.6085815
               38                1       152.511673       44.7042580               0.      -64.8073425
               38                2       175.919250       61.0222893               0.      -63.6173515
               38                3       136.450729       46.6317863               0.      -74.7607117
               38                4       160.116104       63.4207344               0.      -73.9089966
               39                1       94.8310471       152.232727               0.       92.9915085
               39                2       107.863342       135.924362               0.       97.1182556
               39                3       78.6561203       132.002853               0.       91.8752747
               39                4       91.1648636       117.002083               0.       95.6874390
               40                1       110.135185       142.565735               0.       82.4771881
               40                2       113.309700       131.577271               0.       85.1744843
               40                3       104.879707       133.739120               0.       82.3872681
               40                4       106.869568       122.567940               0.       84.7345734
               41                1       114.873901       121.409164               0.       82.9182510
               41                2       120.471283       121.997154               0.       83.2815704
               41                3       126.700615       130.640335               0.       78.6602707
               41                4       132.942825       132.349899               0.       78.3876648
               42                1       120.062210       113.118561               0.       87.1627274
               42                2       132.405991       121.918007               0.       88.5461502
               42                3       131.410812       109.980179               0.       84.1329422
               42                4       144.256790       118.075096               0.       85.0934067
               43                1       118.529671       97.9631958               0.       100.948807
               43                2       143.683975       118.917213               0.       103.723099
               43                3       135.418793       86.8165817               0.       96.2163773
               43                4       162.636810       108.065941               0.       98.6658859
               44                1       160.006683       63.5952263               0.       74.0044250
               44                2       175.913269       61.5765991               0.       63.7118034
               44                3       136.298523       46.8372726               0.       74.8813934
               44                4       152.397202       45.2249603               0.       64.9423599
               45                1       161.307129       32.5632057               0.       27.6154118
               45                2       167.944244       35.5377235               0.       17.1672325
               45                3       139.017593       15.2026224               0.       29.4634724
               45                4       148.014374       20.1961002               0.       18.5766621
               46                1       143.782394       90.8770676               0.       67.6895218
               46                2       156.708328       90.5943375               0.       60.4634171
               46                3       127.105965       81.9715424               0.       68.4184952
               46                4       139.859985       81.9094543               0.       61.6356468
               47                1       145.796967       69.0447388               0.       28.5808239
               47                2       156.383881       73.8781662               0.       15.0250311
               47                3       127.236931       58.7263222               0.       33.5824356
               47                4       140.880890       65.2073669               0.       17.7816334
               48                1       123.721207       113.057892               0.       61.8670921
               48                2       139.982635       112.517052               0.       51.4739914
               48                3       97.5222015       102.731750               0.       62.6386948
               48                4       112.753212       102.691200               0.       53.2424927
               49                1       128.305893       100.174789               0.       23.0199604
               49                2       136.752151       100.214424               0.       12.2907887
               49                3       115.267548       101.171768               0.       26.0652027
               49                4       125.763466       102.194244               0.       13.7260389
               50                1       114.990715       121.319725               0.       8.02489662
               50                2       102.280739       124.839874               0.       8.01884651
               50                3       110.031487       122.302277               0.       14.6809225
               50                4       96.9646454       124.783920               0.       15.8964396
               51                1       89.5079575       137.722031               0.       3.28843451
               51                2       75.0837021       137.672897               0.       2.65515208
               51                3       87.5497971       137.689896               0.       7.75040007
               51                4       74.2770233       137.447021               0.       7.81310940
               52                1       112.111160       118.562057               0.       39.7708015
               52                2       88.3995590       122.775536               0.       35.1211395
               52                3       108.611076       137.208084               0.       40.8401337
               52                4       87.9239883       141.008286               0.       36.7058983
               53                1       79.3088150       135.859482               0.       17.6786327
               53                2       72.2385788       138.016693               0.       12.3371105
               53                3       79.9552841       140.596161               0.       17.5562782
               53                4       73.9849014       142.603851               0.       13.1049051
               54                1       69.6507645       145.916260               0.       14.0346107
               54                2       75.1028519       156.336075               0.       10.5493364
               54                3       56.4817810       137.494522               0.       24.6190033
               54                4       63.1996918       148.943146               0.       20.1535606
               55                1       69.6022644       163.305389               0.       7.63793182
               55                2       78.8215561       180.550797               0.      -1.73302555
               55                3       15.5809689       138.442688               0.       24.5055428
               55                4       30.1895199       161.394547               0.       12.2830896
               56                1       65.0203018       137.085083               0.       49.6988983
               56                2       80.1903076       163.549500               0.       47.9988365
               56                3       71.4151840       122.063705               0.       61.3886681
               56                4       85.7156525       147.811798               0.       59.8981781
               57                1       29.6179123       148.026215               0.       60.3950806
               57                2       44.6243744       167.501801               0.       61.1187744
               57                3       42.6463470       140.503006               0.       68.2545624
               57                4       57.8715248       159.292969               0.       68.9486771
               58                1       107.867798       162.643051               0.       98.7177200
               58                2       119.058075       143.745682               0.       103.782219
               58                3       86.4965744       135.281982               0.       96.2362289
               58                4       98.1284409       118.682404               0.       100.988129
               59                1       118.059631       144.350204               0.       85.0401535
               59                2       121.982887       132.588821               0.       88.5104523
               59                3       109.929062       131.454605               0.       84.0796509
               59                4       113.008736       119.987915               0.       87.1069336
               60                1       132.440720       132.828751               0.       78.3272552
               60                2       121.868538       120.293884               0.       83.2517929
               60                3       130.812653       126.687126               0.       78.6189957
               60                4       121.409103       114.846893               0.       82.9085846
               61                1       122.587555       106.830978               0.       84.7416153
               61                2       131.621429       113.311378               0.       85.1902847
               61                3       133.734909       104.735382               0.       82.4014969
               61                4       142.599335       110.021652               0.       82.4985504
               62                1       117.061333       91.1878967               0.       95.7026520
               62                2       135.955368       107.871506               0.       97.1321869
               62                3       132.015015       78.6295853               0.       91.8984528
               62                4       152.236038       94.7938690               0.       93.0133438
               63                1       159.306168       57.8768539               0.       68.9357910
               63                2       167.500244       44.5763817               0.       61.1046219
               63                3       140.498260       42.6460457               0.       68.2399979
               63                4       148.012329       29.5658112               0.       60.3761215
               64                1       161.405106       30.2081184               0.       12.2593460
               64                2       180.551376       78.8272934               0.      -1.74669194
               64                3       138.450851       15.5821190               0.       24.4883118
               64                4       163.313446       69.6090927               0.       7.62345982
               65                1       147.854965       85.6833649               0.       59.8447609
               65                2       163.583176       80.1328430               0.       47.9548264
               65                3       122.081367       71.3814468               0.       61.3472939
               65                4       137.126511       64.9666443               0.       49.6504745
               66                1       148.949036       63.1702843               0.       20.1350784
               66                2       156.346268       75.1003418               0.       10.5363159
               66                3       137.497635       56.4458961               0.       24.6100006
               66                4       145.928680       69.6482773               0.       14.0281115
               67                1       142.615997       73.9859238               0.       13.1025391
               67                2       138.022522       72.2371674               0.       12.3365974
               67                3       140.606125       79.9461441               0.       17.5524826
               67                4       135.861145       79.2989807               0.       17.6788654
               68                1       137.450195       74.2750015               0.       7.81131124
               68                2       137.673141       75.0736237               0.       2.65425754
               68                3       137.693604       87.5344162               0.       7.74784327
               68                4       137.724319       89.4726639               0.       3.28744483
               69                1       141.086563       87.8639679               0.       36.6461487
               69                2       122.861130       88.3321915               0.       35.0744858
               69                3       137.263672       108.455742               0.       40.7818565
               69                4       118.610863       111.964546               0.       39.7338333
               70                1       124.873268       96.9399261               0.       15.8408833
               70                2       124.878426       102.209457               0.       7.99851656
               70                3       122.389297       109.956856               0.       14.6675129
               70                4       121.367920       114.866219               0.       8.04477119
               71                1       102.276268       125.680191               0.       13.7015038
               71                2       100.258034       136.661575               0.       12.3082724
               71                3       101.369560       115.253937               0.       26.0065422
               71                4       100.340225       128.280365               0.       23.0110035
               72                1       65.0903473       140.778397               0.       17.8189068
               72                2       73.8465881       156.418228               0.       15.0111141
               72                3       58.4924698       127.247078               0.       33.5357285
               72                4       68.8228531       145.764282               0.       28.5655556
               73                1       20.2994061       148.155273               0.       18.5709438
               73                2       35.4555054       167.898849               0.       17.1494179
               73                3       15.1520329       139.102982               0.       29.3678627
               73                4       32.3781166       161.268951               0.       27.4788418
               74                1       102.849060       112.565193               0.       53.1897392
               74                2       112.624985       139.710556               0.       51.4402199
               74                3       102.911636       97.3339157               0.       62.5870399
               74                4       113.226967       123.532211               0.       61.8326492
               75                1       82.0591202       139.792572               0.       61.5578995
               75                2       90.8617325       156.933350               0.       60.3182716
               75                3       81.7774200       126.930580               0.       68.3985138
               75                4       90.7412720       143.818024               0.       67.6085815
               76                1       44.7042580       152.511673               0.       64.8073425
               76                2       61.0222893       175.919250               0.       63.6173515
               76                3       46.6317863       136.450729               0.       74.7607117
               76                4       63.4207344       160.116104               0.       73.9089966
               77                1       162.643051       107.867798               0.      -98.7177200
               77                2       143.745682       119.058075               0.      -103.782219
               77                3       135.281982       86.4965744               0.      -96.2362289
               77                4       118.682404       98.1284409               0.      -100.988129
               78                1       144.350204       118.059631               0.      -85.0401535
               78                2       132.588821       121.982887               0.      -88.5104523
               78                3       131.454605       109.929062               0.      -84.0796509
               78                4       119.987915       113.008736               0.      -87.1069336
               79                1       132.828751       132.440720               0.      -78.3272552
               79                2       120.293884       121.868538               0.      -83.2517929
               79                3       126.687126       130.812653               0.      -78.6189957
               79                4       114.846893       121.409103               0.      -82.9085846
               80                1       106.830978       122.587555               0.      -84.7416153
               80                2       113.311378       131.621429               0.      -85.1902847
               80                3       104.735382       133.734909               0.      -82.4014969
               80                4       110.021652       142.599335               0.      -82.4985504
               81                1       91.1878967       117.061333               0.      -95.7026520
               81                2       107.871506       135.955368               0.      -97.1321869
               81                3       78.6295853       132.015015               0.      -91.8984528
               81                4       94.7938690       152.236038               0.      -93.0133438
               82                1       57.8768539       159.306168               0.      -68.9357910
               82                2       44.5763817       167.500244               0.      -61.1046219
               82                3       42.6460457       140.498260               0.      -68.2399979
               82                4       29.5658112       148.012329               0.      -60.3761215
               83                1       30.2081184       161.405106               0.      -12.2593460
               83                2       78.8272934       180.551376               0.       1.74669194
               83                3       15.5821190       138.450851               0.      -24.4883118
               83                4       69.6090927       163.313446               0.      -7.62345982
               84                1       85.6833649       147.854965               0.      -59.8447609
               84                2       80.1328430       163.583176               0.      -47.9548264
               84                3       71.3814468       122.081367               0.      -61.3472939
               84                4       64.9666443       137.126511               0.      -49.6504745
               85                1       63.1702843       148.949036               0.      -20.1350784
               85                2       75.1003418       156.346268               0.      -10.5363159
               85                3       56.4458961       137.497635               0.      -24.6100006
               85                4       69.6482773       145.928680               0.      -14.0281115
               86                1       73.9859238       142.615997               0.      -13.1025391
               86                2       72.2371674       138.022522               0.      -12.3365974
               86                3       79.9461441       140.606125               0.      -17.5524826
               86                4       79.2989807       135.861145               0.      -17.6788654
               87                1       74.2750015       137.450195               0.      -7.81131124
               87                2       75.0736237       137.673141               0.      -2.65425754
               87                3       87.5344162       137.693604               0.      -7.74784327
               87                4       89.4726639       137.724319               0.      -3.28744483
               88                1       87.8639679       141.086563               0.      -36.6461487
               88                2       88.3321915       122.861130               0.      -35.0744858
               88                3       108.455742       137.263672               0.      -40.7818565
               88                4       111.964546       118.610863               0.      -39.7338333
               89                1       96.9399261       124.873268               0.      -15.8408833
               89                2       102.209457       124.878426               0.      -7.99851656
               89                3       109.956856       122.389297               0.      -14.6675129
               89                4       114.866219       121.367920               0.      -8.04477119
               90                1       125.680191       102.276268               0.      -13.7015038
               90                2       136.661575       100.258034               0.      -12.3082724
               90                3       115.253937       101.369560               0.      -26.0065422
               90                4       128.280365       100.340225               0.      -23.0110035
               91                1       140.778397       65.0903473               0.      -17.8189068
               91                2       156.418228       73.8465881               0.      -15.0111141
               91                3       127.247078       58.4924698               0.      -33.5357285
               91                4       145.764282       68.8228531               0.      -28.5655556
               92                1       148.155273       20.2994061               0.      -18.5709438
               92                2       167.898849       35.4555054               0.      -17.1494179
               92                3       139.102982       15.1520329               0.      -29.3678627
               92                4       161.268951       32.3781166               0.      -27.4788418
               93                1       112.565193       102.849060               0.      -53.1897392
               93                2       139.710556       112.624985               0.      -51.4402199
               93                3       97.3339157       102.911636               0.      -62.5870399
               93                4       123.532211       113.226967               0.      -61.8326492
               94                1       139.792572       82.0591202               0.      -61.5578995
               94                2       156.933350       90.8617325               0.      -60.3182716
               94                3       126.930580       81.7774200               0.      -68.3985138
               94                4       143.818024       90.7412720               0.      -67.6085815
               95                1       152.511673       44.7042580               0.      -64.8073425
               95                2       175.919250       61.0222893               0.      -63.6173515
               95                3       136.450729       46.6317863               0.      -74.7607117
               95                4       160.116104       63.4207344               0.      -73.9089966
               96                1       107.867798       162.643051               0.       98.7177200
               96                2       119.058075       143.745682               0.       103.782219
               96                3       86.4965744       135.281982               0.       96.2362289
               96                4       98.1284409       118.682404               0.       100.988129
               97                1       118.059631       144.350204               0.       85.0401535
               97                2       121.982887       132.588821               0.       88.5104523
               97                3       109.929062       131.454605               0.       84.0796509
               97                4       113.008736       119.987915               0.       87.1069336
               98                1       132.440720       132.828751               0.       78.3272552
               98                2       121.868538       120.293884               0.       83.2517929
               98                3       130.812653       126.687126               0.       78.6189957
               98                4       121.409103       114.846893               0.       82.9085846
               99                1       122.587555       106.830978               0.       84.7416153
               99                2       131.621429       113.311378               0.       85.1902847
               99                3       133.734909       104.735382               0.       82.4014969
               99                4       142.599335       110.021652               0.       82.4985504
              100                1       117.061333       91.1878967               0.       95.7026520
              100                2       135.955368       107.871506               0.       97.1321869
              100                3       132.015015       78.6295853               0.       91.8984528
              100                4       152.236038       94.7938690               0.       93.0133438
              101                1       159.306168       57.8768539               0.       68.9357910
              101                2       167.500244       44.5763817               0.       61.1046219
              101                3       140.498260       42.6460457               0.       68.2399979
              101                4       148.012329       29.5658112               0.       60.3761215
              102                1       161.405106       30.2081184               0.       12.2593460
              102                2       180.551376       78.8272934               0.      -1.74669194
              102                3       138.450851       15.5821190               0.       24.4883118
              102                4       163.313446       69.6090927               0.       7.62345982
              103                1       147.854965       85.6833649               0.       59.8447609
              103                2       163.583176       80.1328430               0.       47.9548264
              103                3       122.081367       71.3814468               0.       61.3472939
              103                4       137.126511       64.9666443               0.       49.6504745
              104                1       148.949036       63.1702843               0.       20.1350784
              104                2       156.346268       75.1003418               0.       10.5363159
              104                3       137.497635       56.4458961               0.       24.6100006
              104                4       145.928680       69.6482773               0.       14.0281115
              105                1       142.615997       73.9859238               0.       13.1025391
              105                2       138.022522       72.2371674               0.       12.3365974
              105                3       140.606125       79.9461441               0.       17.5524826
              105                4       135.861145       79.2989807               0.       17.6788654
              106                1       137.450195       74.2750015               0.       7.81131124
              106                2       137.673141       75.0736237               0.       2.65425754
              106                3       137.693604       87.5344162               0.       7.74784327
              106                4       137.724319       89.4726639               0.       3.28744483
              107                1       141.086563       87.8639679               0.       36.6461487
              107                2       122.861130       88.3321915               0.       35.0744858
              107                3       137.263672       108.455742               0.       40.7818565
              107                4       118.610863       111.964546               0.       39.7338333
              108                1       124.873268       96.9399261               0.       15.8408833
              108                2       124.878426       102.209457               0.       7.99851656
              108                3       122.389297       109.956856               0.       14.6675129
              108                4       121.367920       114.866219               0.       8.04477119
              109                1       102.276268       125.680191               0.       13.7015038
              109                2       100.258034       136.661575               0.       12.3082724
              109                3       101.369560       115.253937               0.       26.0065422
              109                4       100.340225       128.280365               0.       23.0110035
              110                1       65.0903473       140.778397               0.       17.8189068
              110                2       73.8465881       156.418228               0.       15.0111141
              110                3       58.4924698       127.247078               0.       33.5357285
              110                4       68.8228531       145.764282               0.       28.5655556
              111                1       20.2994061       148.155273               0.       18.5709438
              111                2       35.4555054       167.898849               0.       17.1494179
              111                3       15.1520329       139.102982               0.       29.3678627
              111                4       32.3781166       161.268951               0.       27.4788418
              112                1       102.849060       112.565193               0.       53.1897392
              112                2       112.624985       139.710556               0.       51.4402199
              112                3       102.911636       97.3339157               0.       62.5870399
              112                4       113.226967       123.532211               0.       61.8326492
              113                1       82.0591202       139.792572               0.       61.5578995
              113                2       90.8617325       156.933350               0.       60.3182716
              113                3       81.7774200       126.930580               0.       68.3985138
              113                4       90.7412720       143.818024               0.       67.6085815
              114                1       44.7042580       152.511673               0.       64.8073425
              114                2       61.0222893       175.919250               0.       63.6173515
              114                3       46.6317863       136.450729               0.       74.7607117
              114                4       63.4207344       160.116104               0.       73.9089966
              115                1       94.8310471       152.232727               0.       92.9915085
              115                2       107.863342       135.924362               0.       97.1182556
              115                3       78.6561203       132.002853               0.       91.8752747
              115                4       91.1648636       117.002083               0.       95.6874390
              116                1       110.135185       142.565735               0.       82.4771881
              116                2       113.309700       131.577271               0.       85.1744843
              116                3       104.879707       133.739120               0.       82.3872681
              116                4       106.869568       122.567940               0.       84.7345734
              117                1       114.873901       121.409164               0.       82.9182510
              117                2       120.471283       121.997154               0.       83.2815704
              117                3       126.700615       130.640335               0.       78.6602707
              117                4       132.942825       132.349899               0.       78.3876648
              118                1       120.062210       113.118561               0.       87.1627274
              118                2       132.405991       121.918007               0.       88.5461502
              118                3       131.410812       109.980179               0.       84.1329422
              118                4       144.256790       118.075096               0.       85.0934067
              119                1       118.529671       97.9631958               0.       100.948807
              119                2       143.683975       118.917213               0.       103.723099
              119                3       135.418793       86.8165817               0.       96.2163773
              119                4       162.636810       108.065941               0.       98.6658859
              120                1       160.006683       63.5952263               0.       74.0044250
              120                2       175.913269       61.5765991               0.       63.7118034
              120                3       136.298523       46.8372726               0.       74.8813934
              120                4       152.397202       45.2249603               0.       64.9423599
              121                1       161.307129       32.5632057               0.       27.6154118
              121                2       167.944244       35.5377235               0.       17.1672325
              121                3       139.017593       15.2026224               0.       29.4634724
              121                4       148.014374       20.1961002               0.       18.5766621
              122                1       143.782394       90.8770676               0.       67.6895218
              122                2       156.708328       90.5943375               0.       60.4634171
              122                3       127.105965       81.9715424               0.       68.4184952
              122                4       139.859985       81.9094543               0.       61.6356468
              123                1       145.796967       69.0447388               0.       28.5808239
              123                2       156.383881       73.8781662               0.       15.0250311
              123                3       127.236931       58.7263222               0.       33.5824356
              123                4       140.880890       65.2073669               0.       17.7816334
              124                1       123.721207       113.057892               0.       61.8670921
              124                2       139.982635       112.517052               0.       51.4739914
              124                3       97.5222015       102.731750               0.       62.6386948
              124                4       112.753212       102.691200               0.       53.2424927
              125                1       128.305893       100.174789               0.       23.0199604
              125                2       136.752151       100.214424               0.       12.2907887
              125                3       115.267548       101.171768               0.       26.0652027
              125                4       125.763466       102.194244               0.       13.7260389
              126                1       114.990715       121.319725               0.       8.02489662
              126                2       102.280739       124.839874               0.       8.01884651
              126                3       110.031487       122.302277               0.       14.6809225
              126                4       96.9646454       124.783920               0.       15.8964396
              127                1       89.5079575       137.722031               0.       3.28843451
              127                2       75.0837021       137.672897               0.       2.65515208
              127                3       87.5497971       137.689896               0.       7.75040007
              127                4       74.2770233       137.447021               0.       7.81310940
              128                1       112.111160       118.562057               0.       39.7708015
              128                2       88.3995590       122.775536               0.       35.1211395
              128                3       108.611076       137.208084               0.       40.8401337
              128                4       87.9239883       141.008286               0.       36.7058983
              129                1       79.3088150       135.859482               0.       17.6786327
              129                2       72.2385788       138.016693               0.       12.3371105
              129                3       79.9552841       140.596161               0.       17.5562782
              129                4       73.9849014       142.603851               0.       13.1049051
              130                1       69.6507645       145.916260               0.       14.0346107
              130                2       75.1028519       156.336075               0.       10.5493364
              130                3       56.4817810       137.494522               0.       24.6190033
              130                4       63.1996918       148.943146               0.       20.1535606
              131                1       69.6022644       163.305389               0.       7.63793182
              131                2       78.8215561       180.550797               0.      -1.73302555
              131                3       15.5809689       138.442688               0.       24.5055428
              131                4       30.1895199       161.394547               0.       12.2830896
              132                1       65.0203018       137.085083               0.       49.6988983
              132                2       80.1903076       163.549500               0.       47.9988365
              132                3       71.4151840       122.063705               0.       61.3886681
              132                4       85.7156525       147.811798               0.       59.8981781
              133                1       29.6179123       148.026215               0.       60.3950806
              133                2       44.6243744       167.501801               0.       61.1187744
              133                3       42.6463470       140.503006               0.       68.2545624
              133                4       57.8715248       159.292969               0.       68.9486771
              134                1       152.232727       94.8310471               0.      -92.9915085
              134                2       135.924362       107.863342               0.      -97.1182556
              134                3       132.002853       78.6561203               0.      -91.8752747
              134                4       117.002083       91.1648636               0.      -95.6874390
              135                1       142.565735       110.135185               0.      -82.4771881
              135                2       131.577271       113.309700               0.      -85.1744843
              135                3       133.739120       104.879707               0.      -82.3872681
              135                4       122.567940       106.869568               0.      -84.7345734
              136                1       121.409164       114.873901               0.      -82.9182510
              136                2       121.997154       120.471283               0.      -83.2815704
              136                3       130.640335       126.700615               0.      -78.6602707
              136                4       132.349899       132.942825               0.      -78.3876648
              137                1       113.118561       120.062210               0.      -87.1627274
              137                2       121.918007       132.405991               0.      -88.5461502
              137                3       109.980179       131.410812               0.      -84.1329422
              137                4       118.075096       144.256790               0.      -85.0934067
              138                1       97.9631958       118.529671               0.      -100.948807
              138                2       118.917213       143.683975               0.      -103.723099
              138                3       86.8165817       135.418793               0.      -96.2163773
              138                4       108.065941       162.636810               0.      -98.6658859
              139                1       63.5952263       160.006683               0.      -74.0044250
              139                2       61.5765991       175.913269               0.      -63.7118034
              139                3       46.8372726       136.298523               0.      -74.8813934
              139                4       45.2249603       152.397202               0.      -64.9423599
              140                1       32.5632057       161.307129               0.      -27.6154118
              140                2       35.5377235       167.944244               0.      -17.1672325
              140                3       15.2026224       139.017593               0.      -29.4634724
              140                4       20.1961002       148.014374               0.      -18.5766621
              141                1       90.8770676       143.782394               0.      -67.6895218
              141                2       90.5943375       156.708328               0.      -60.4634171
              141                3       81.9715424       127.105965               0.      -68.4184952
              141                4       81.9094543       139.859985               0.      -61.6356468
              142                1       69.0447388       145.796967               0.      -28.5808239
              142                2       73.8781662       156.383881               0.      -15.0250311
              142                3       58.7263222       127.236931               0.      -33.5824356
              142                4       65.2073669       140.880890               0.      -17.7816334
              143                1       113.057892       123.721207               0.      -61.8670921
              143                2       112.517052       139.982635               0.      -51.4739914
              143                3       102.731750       97.5222015               0.      -62.6386948
              143                4       102.691200       112.753212               0.      -53.2424927
              144                1       100.174789       128.305893               0.      -23.0199604
              144                2       100.214424       136.752151               0.      -12.2907887
              144                3       101.171768       115.267548               0.      -26.0652027
              144                4       102.194244       125.763466               0.      -13.7260389
              145                1       121.319725       114.990715               0.      -8.02489662
              145                2       124.839874       102.280739               0.      -8.01884651
              145                3       122.302277       110.031487               0.      -14.6809225
              145                4       124.783920       96.9646454               0.      -15.8964396
              146                1       137.722031       89.5079575               0.      -3.28843451
              146                2       137.672897       75.0837021               0.      -2.65515208
              146                3       137.689896       87.5497971               0.      -7.75040007
              146                4       137.447021       74.2770233               0.      -7.81310940
              147                1       118.562057       112.111160               0.      -39.7708015
              147                2       122.775536       88.3995590               0.      -35.1211395
              147                3       137.208084       108.611076               0.      -40.8401337
              147                4       141.008286       87.9239883               0.      -36.7058983
              148                1       135.859482       79.3088150               0.      -17.6786327
              148                2       138.016693       72.2385788               0.      -12.3371105
              148                3       140.596161       79.9552841               0.      -17.5562782
              148                4       142.603851       73.9849014               0.      -13.1049051
              149                1       145.916260       69.6507645               0.      -14.0346107
              149                2       156.336075       75.1028519               0.      -10.5493364
              149                3       137.494522       56.4817810               0.      -24.6190033
              149                4       148.943146       63.1996918               0.      -20.1535606
              150                1       163.305389       69.6022644               0.      -7.63793182
              150                2       180.550797       78.8215561               0.       1.73302555
              150                3       138.442688       15.5809689               0.      -24.5055428
              150                4       161.394547       30.1895199               0.      -12.2830896
              151                1       137.085083       65.0203018               0.      -49.6988983
              151                2       163.549500       80.1903076               0.      -47.9988365
              151                3       122.063705       71.4151840               0.      -61.3886681
              151                4       147.811798       85.7156525               0.      -59.8981781
              152                1       148.026215       29.6179123               0.      -60.3950806
              152                2       167.501801       44.6243744               0.      -61.1187744
              152                3       140.503006       42.6463470               0.      -68.2545624
              152                4       159.292969       57.8715248               0.      -68.9486771


********************************************************************************
Field Output Report, written Mon May 12 10:41:58 2025

Source 1
---------

   ODB: C:/lnms/Vid/CrossHoleSym2/CrossHoleSym2brezU.odb
   Step: loading
   Frame: Increment      3: Step Time =   0.3000

Loc 1 : Integration point values from source 1

Output sorted by column "Element Label".

Field Output reported at integration points for part: SPECIMEN-1

          Element              Int            S.S11            S.S22            S.S33            S.S12
            Label               Pt           @Loc 1           @Loc 1           @Loc 1           @Loc 1
-------------------------------------------------------------------------------------------------------
                1                1       183.834656       113.944054               0.      -113.265892
                1                2       163.502167       130.318085               0.      -118.449394
                1                3       157.585938       93.4770203               0.      -110.409439
                1                4       139.095947       109.033798               0.      -115.184311
                2                1       169.640686       129.237167               0.      -98.8034210
                2                2       155.828140       134.290451               0.      -102.108055
                2                3       157.827606       121.927917               0.      -98.1885834
                2                4       143.690033       125.276970               0.      -100.989098
                3                1       141.921646       135.010010               0.      -98.6107407
                3                2       142.689911       141.367798               0.      -99.1077118
                3                3       152.983688       148.955231               0.      -93.7623215
                3                4       155.113297       156.140579               0.      -93.5227127
                4                1       132.268784       140.880890               0.      -103.789932
                4                2       143.345551       156.172684               0.      -106.158455
                4                3       128.745590       154.509415               0.      -100.028015
                4                4       138.966888       170.490906               0.      -101.840309
                5                1       116.682884       141.084778               0.      -120.991493
                5                2       142.730667       172.119415               0.      -126.079872
                5                3       102.705002       160.840637               0.      -115.315170
                5                4       128.953201       194.725128               0.      -120.090591
                6                1       77.1850739       192.862244               0.      -89.9297714
                6                2       71.5668488       210.879105               0.      -77.7126999
                6                3       55.9426575       162.380249               0.      -89.1449585
                6                4       50.8672714       180.249374               0.      -77.4226990
                7                1       38.7431183       194.596146               0.      -33.5629501
                7                2       41.2411880       202.048050               0.      -21.6687527
                7                3       19.3732357       166.173477               0.      -34.4690514
                7                4       23.7989502       176.036224               0.      -22.5814400
                8                1       106.879402       170.340790               0.      -80.2893753
                8                2       104.651947       185.405090               0.      -71.6389008
                8                3       95.0113220       149.022827               0.      -80.2288589
                8                4       93.0587006       163.771454               0.      -72.1272430
                9                1       80.3611908       172.891449               0.      -32.8676147
                9                2       86.3077698       185.434662               0.      -18.1509438
                9                3       67.1818695       148.579529               0.      -36.5898552
                9                4       74.1526871       163.059189               0.      -20.4671459
               10                1       132.184891       144.723221               0.      -72.6768036
               10                2       132.857468       163.864410               0.      -60.0223198
               10                3       118.696388       112.943504               0.      -72.6441956
               10                4       119.612579       130.316681               0.      -61.0906715
               11                1       115.312111       149.194595               0.      -25.9713097
               11                2       115.688606       158.818039               0.      -14.2518387
               11                3       113.519440       132.163712               0.      -28.3979397
               11                4       114.435196       143.053711               0.      -15.4160633
               12                1       138.463760       131.776581               0.      -9.18244171
               12                2       140.134979       115.237503               0.      -9.25889969
               12                3       139.488022       126.239159               0.      -16.9718933
               12                4       140.255493       109.523659               0.      -18.3788280
               13                1       157.368195       103.698349               0.      -4.31527233
               13                2       156.078354       85.6912155               0.      -3.28009892
               13                3       157.852341       101.510338               0.      -9.55350113
               13                4       156.477997       85.0193558               0.      -9.35272694
               14                1       140.527420       128.338303               0.      -44.7290154
               14                2       140.837265       99.9113464               0.      -39.4818497
               14                3       161.521790       126.390701               0.      -47.4734421
               14                4       163.043594       101.861656               0.      -43.1379814
               15                1       156.423996       91.6796875               0.      -20.2577171
               15                2       158.188507       82.9810028               0.      -14.4279137
               15                3       163.948029       93.5709839               0.      -20.5825157
               15                4       165.841583       86.1912689               0.      -15.6288567
               16                1       170.955917       81.5863266               0.      -16.5616169
               16                2       185.681900       89.0793762               0.      -12.8935785
               16                3       161.015228       66.1043167               0.      -27.4320278
               16                4       176.173889       74.2667313               0.      -23.1954899
               17                1       195.278702       83.5168228               0.      -9.46461105
               17                2       218.788422       95.4639664               0.       1.40439594
               17                3       165.069748       20.2390308               0.      -27.3860664
               17                4       193.258698       35.5923042               0.      -14.0683632
               18                1       159.816589       73.9872742               0.      -57.9525757
               18                2       193.929230       93.3166580               0.      -57.6230736
               18                3       143.937119       82.7206421               0.      -71.4921341
               18                4       176.224808       100.858177               0.      -71.4958344
               19                1       176.303284       32.6850052               0.      -72.4541321
               19                2       201.992294       51.3439178               0.      -74.5519180
               19                3       168.277008       51.0936203               0.      -82.0030823
               19                4       193.046478       70.1907654               0.      -84.1806412
               20                1       194.718338       128.701126               0.      -120.154037
               20                2       172.198349       142.886856               0.      -126.156624
               20                3       160.678024       102.331978               0.      -115.335907
               20                4       141.289810       116.888710               0.      -121.053902
               21                1       170.615784       138.950607               0.      -101.783653
               21                2       156.409714       143.453033               0.      -106.125801
               21                3       154.562546       128.673920               0.      -99.9667206
               21                4       140.788956       132.143021               0.      -103.717552
               22                1       155.990311       155.221039               0.      -93.4475861
               22                2       141.151382       142.529373               0.      -99.0634766
               22                3       148.937332       153.197144               0.      -93.7157211
               22                4       134.984192       141.925171               0.      -98.5982513
               23                1       125.237160       143.717499               0.      -100.997902
               23                2       134.296173       155.884445               0.      -102.128983
               23                3       121.755119       157.820572               0.      -98.2038345
               23                4       129.099167       169.680420               0.      -98.8290024
               24                1       109.063721       139.169388               0.      -115.205116
               24                2       130.328735       163.541016               0.      -118.466934
               24                3       93.4454651       157.601425               0.      -110.438286
               24                4       113.898064       183.839371               0.      -113.292343
               25                1       70.1968155       193.065887               0.      -84.1661758
               25                2       51.2816124       201.989120               0.      -74.5382614
               25                3       51.0977211       168.277344               0.      -81.9851990
               25                4       32.6230164       176.288162               0.      -72.4339752
               26                1       35.6198196       193.270691               0.      -14.0400400
               26                2       95.4709167       218.786850               0.       1.42077577
               26                3       20.2459984       165.080246               0.      -27.3646832
               26                4       83.5258026       195.288391               0.      -9.44705009
               27                1       100.820900       176.280838               0.      -71.4308777
               27                2       93.2482452       193.970383               0.      -57.5755615
               27                3       82.6871872       143.970001               0.      -71.4381943
               27                4       73.9294052       159.871338               0.      -57.8994446
               28                1       74.2325134       176.177551               0.      -23.1757069
               28                2       89.0771103       185.694397               0.      -12.8784561
               28                3       66.0637283       161.015915               0.      -27.4239693
               28                4       81.5846863       170.971924               0.      -16.5546608
               29                1       86.1928024       165.857910               0.      -15.6259022
               29                2       82.9788132       158.195831               0.      -14.4273005
               29                3       93.5578232       163.959366               0.      -20.5778370
               29                4       91.6646042       156.423935               0.      -20.2574654
               30                1       85.0158386       156.481232               0.      -9.35067749
               30                2       85.6774979       156.077438               0.      -3.27963328
               30                3       101.488396       157.854614               0.      -9.54993916
               30                4       103.650917       157.367050               0.      -4.31368494
               31                1       101.796661       163.142471               0.      -43.0738564
               31                2       99.8428040       140.939865               0.      -39.4326897
               31                3       126.207321       161.579712               0.      -47.4048538
               31                4       128.164032       140.577606               0.      -44.6794815
               32                1       109.510811       140.372360               0.      -18.3226929
               32                2       115.153030       140.173584               0.      -9.23780727
               32                3       126.164993       139.593170               0.      -16.9587593
               32                4       131.618912       138.499680               0.      -9.20322800
               33                1       142.942749       114.511383               0.      -15.3809710
               33                2       158.702850       115.725090               0.      -14.2634888
               33                3       132.153839       113.759941               0.      -28.3474598
               33                4       149.192276       115.524689               0.      -25.9691906
               34                1       162.913986       74.0102768               0.      -20.4989204
               34                2       185.485901       86.2785110               0.      -18.1331940
               34                3       148.564148       66.9269180               0.      -36.5465965
               34                4       172.836838       80.1079941               0.      -32.8522797
               35                1       176.235870       23.9231014               0.      -22.5763855
               35                2       201.982437       41.1510925               0.      -21.6471653
               35                3       166.305603       19.3478336               0.      -34.3602524
               35                4       194.541245       38.5530319               0.      -33.4004135
               36                1       130.088593       119.802238               0.      -61.0254173
               36                2       163.520096       132.982697               0.      -59.9742775
               36                3       112.718246       118.908852               0.      -72.5815048
               36                4       144.487534       132.384201               0.      -72.6316681
               37                1       163.677048       93.2189407               0.      -72.0211563
               37                2       185.703796       104.999931               0.      -71.4737396
               37                3       148.790558       94.7561035               0.      -80.1932678
               37                4       170.390015       106.726494               0.      -80.1960831
               38                1       180.409790       50.2877312               0.      -77.2932281
               38                2       210.877365       70.8913803               0.      -77.6201782
               38                3       162.597839       55.7355042               0.      -89.0107193
               38                4       193.003067       76.9682770               0.      -89.8229523
               39                1       113.944054       183.834656               0.       113.265892
               39                2       130.318085       163.502167               0.       118.449394
               39                3       93.4770203       157.585938               0.       110.409439
               39                4       109.033798       139.095947               0.       115.184311
               40                1       129.237167       169.640686               0.       98.8034210
               40                2       134.290451       155.828140               0.       102.108055
               40                3       121.927917       157.827606               0.       98.1885834
               40                4       125.276970       143.690033               0.       100.989098
               41                1       135.010010       141.921646               0.       98.6107407
               41                2       141.367798       142.689911               0.       99.1077118
               41                3       148.955231       152.983688               0.       93.7623215
               41                4       156.140579       155.113297               0.       93.5227127
               42                1       140.880890       132.268784               0.       103.789932
               42                2       156.172684       143.345551               0.       106.158455
               42                3       154.509415       128.745590               0.       100.028015
               42                4       170.490906       138.966888               0.       101.840309
               43                1       141.084778       116.682884               0.       120.991493
               43                2       172.119415       142.730667               0.       126.079872
               43                3       160.840637       102.705002               0.       115.315170
               43                4       194.725128       128.953201               0.       120.090591
               44                1       192.862244       77.1850739               0.       89.9297714
               44                2       210.879105       71.5668488               0.       77.7126999
               44                3       162.380249       55.9426575               0.       89.1449585
               44                4       180.249374       50.8672714               0.       77.4226990
               45                1       194.596146       38.7431183               0.       33.5629501
               45                2       202.048050       41.2411880               0.       21.6687527
               45                3       166.173477       19.3732357               0.       34.4690514
               45                4       176.036224       23.7989502               0.       22.5814400
               46                1       170.340790       106.879402               0.       80.2893753
               46                2       185.405090       104.651947               0.       71.6389008
               46                3       149.022827       95.0113220               0.       80.2288589
               46                4       163.771454       93.0587006               0.       72.1272430
               47                1       172.891449       80.3611908               0.       32.8676147
               47                2       185.434662       86.3077698               0.       18.1509438
               47                3       148.579529       67.1818695               0.       36.5898552
               47                4       163.059189       74.1526871               0.       20.4671459
               48                1       144.723221       132.184891               0.       72.6768036
               48                2       163.864410       132.857468               0.       60.0223198
               48                3       112.943504       118.696388               0.       72.6441956
               48                4       130.316681       119.612579               0.       61.0906715
               49                1       149.194595       115.312111               0.       25.9713097
               49                2       158.818039       115.688606               0.       14.2518387
               49                3       132.163712       113.519440               0.       28.3979397
               49                4       143.053711       114.435196               0.       15.4160633
               50                1       131.776581       138.463760               0.       9.18244171
               50                2       115.237503       140.134979               0.       9.25889969
               50                3       126.239159       139.488022               0.       16.9718933
               50                4       109.523659       140.255493               0.       18.3788280
               51                1       103.698349       157.368195               0.       4.31527233
               51                2       85.6912155       156.078354               0.       3.28009892
               51                3       101.510338       157.852341               0.       9.55350113
               51                4       85.0193558       156.477997               0.       9.35272694
               52                1       128.338303       140.527420               0.       44.7290154
               52                2       99.9113464       140.837265               0.       39.4818497
               52                3       126.390701       161.521790               0.       47.4734421
               52                4       101.861656       163.043594               0.       43.1379814
               53                1       91.6796875       156.423996               0.       20.2577171
               53                2       82.9810028       158.188507               0.       14.4279137
               53                3       93.5709839       163.948029               0.       20.5825157
               53                4       86.1912689       165.841583               0.       15.6288567
               54                1       81.5863266       170.955917               0.       16.5616169
               54                2       89.0793762       185.681900               0.       12.8935785
               54                3       66.1043167       161.015228               0.       27.4320278
               54                4       74.2667313       176.173889               0.       23.1954899
               55                1       83.5168228       195.278702               0.       9.46461105
               55                2       95.4639664       218.788422               0.      -1.40439594
               55                3       20.2390308       165.069748               0.       27.3860664
               55                4       35.5923042       193.258698               0.       14.0683632
               56                1       73.9872742       159.816589               0.       57.9525757
               56                2       93.3166580       193.929230               0.       57.6230736
               56                3       82.7206421       143.937119               0.       71.4921341
               56                4       100.858177       176.224808               0.       71.4958344
               57                1       32.6850052       176.303284               0.       72.4541321
               57                2       51.3439178       201.992294               0.       74.5519180
               57                3       51.0936203       168.277008               0.       82.0030823
               57                4       70.1907654       193.046478               0.       84.1806412
               58                1       128.701126       194.718338               0.       120.154037
               58                2       142.886856       172.198349               0.       126.156624
               58                3       102.331978       160.678024               0.       115.335907
               58                4       116.888710       141.289810               0.       121.053902
               59                1       138.950607       170.615784               0.       101.783653
               59                2       143.453033       156.409714               0.       106.125801
               59                3       128.673920       154.562546               0.       99.9667206
               59                4       132.143021       140.788956               0.       103.717552
               60                1       155.221039       155.990311               0.       93.4475861
               60                2       142.529373       141.151382               0.       99.0634766
               60                3       153.197144       148.937332               0.       93.7157211
               60                4       141.925171       134.984192               0.       98.5982513
               61                1       143.717499       125.237160               0.       100.997902
               61                2       155.884445       134.296173               0.       102.128983
               61                3       157.820572       121.755119               0.       98.2038345
               61                4       169.680420       129.099167               0.       98.8290024
               62                1       139.169388       109.063721               0.       115.205116
               62                2       163.541016       130.328735               0.       118.466934
               62                3       157.601425       93.4454651               0.       110.438286
               62                4       183.839371       113.898064               0.       113.292343
               63                1       193.065887       70.1968155               0.       84.1661758
               63                2       201.989120       51.2816124               0.       74.5382614
               63                3       168.277344       51.0977211               0.       81.9851990
               63                4       176.288162       32.6230164               0.       72.4339752
               64                1       193.270691       35.6198196               0.       14.0400400
               64                2       218.786850       95.4709167               0.      -1.42077577
               64                3       165.080246       20.2459984               0.       27.3646832
               64                4       195.288391       83.5258026               0.       9.44705009
               65                1       176.280838       100.820900               0.       71.4308777
               65                2       193.970383       93.2482452               0.       57.5755615
               65                3       143.970001       82.6871872               0.       71.4381943
               65                4       159.871338       73.9294052               0.       57.8994446
               66                1       176.177551       74.2325134               0.       23.1757069
               66                2       185.694397       89.0771103               0.       12.8784561
               66                3       161.015915       66.0637283               0.       27.4239693
               66                4       170.971924       81.5846863               0.       16.5546608
               67                1       165.857910       86.1928024               0.       15.6259022
               67                2       158.195831       82.9788132               0.       14.4273005
               67                3       163.959366       93.5578232               0.       20.5778370
               67                4       156.423935       91.6646042               0.       20.2574654
               68                1       156.481232       85.0158386               0.       9.35067749
               68                2       156.077438       85.6774979               0.       3.27963328
               68                3       157.854614       101.488396               0.       9.54993916
               68                4       157.367050       103.650917               0.       4.31368494
               69                1       163.142471       101.796661               0.       43.0738564
               69                2       140.939865       99.8428040               0.       39.4326897
               69                3       161.579712       126.207321               0.       47.4048538
               69                4       140.577606       128.164032               0.       44.6794815
               70                1       140.372360       109.510811               0.       18.3226929
               70                2       140.173584       115.153030               0.       9.23780727
               70                3       139.593170       126.164993               0.       16.9587593
               70                4       138.499680       131.618912               0.       9.20322800
               71                1       114.511383       142.942749               0.       15.3809710
               71                2       115.725090       158.702850               0.       14.2634888
               71                3       113.759941       132.153839               0.       28.3474598
               71                4       115.524689       149.192276               0.       25.9691906
               72                1       74.0102768       162.913986               0.       20.4989204
               72                2       86.2785110       185.485901               0.       18.1331940
               72                3       66.9269180       148.564148               0.       36.5465965
               72                4       80.1079941       172.836838               0.       32.8522797
               73                1       23.9231014       176.235870               0.       22.5763855
               73                2       41.1510925       201.982437               0.       21.6471653
               73                3       19.3478336       166.305603               0.       34.3602524
               73                4       38.5530319       194.541245               0.       33.4004135
               74                1       119.802238       130.088593               0.       61.0254173
               74                2       132.982697       163.520096               0.       59.9742775
               74                3       118.908852       112.718246               0.       72.5815048
               74                4       132.384201       144.487534               0.       72.6316681
               75                1       93.2189407       163.677048               0.       72.0211563
               75                2       104.999931       185.703796               0.       71.4737396
               75                3       94.7561035       148.790558               0.       80.1932678
               75                4       106.726494       170.390015               0.       80.1960831
               76                1       50.2877312       180.409790               0.       77.2932281
               76                2       70.8913803       210.877365               0.       77.6201782
               76                3       55.7355042       162.597839               0.       89.0107193
               76                4       76.9682770       193.003067               0.       89.8229523
               77                1       194.718338       128.701126               0.      -120.154037
               77                2       172.198349       142.886856               0.      -126.156624
               77                3       160.678024       102.331978               0.      -115.335907
               77                4       141.289810       116.888710               0.      -121.053902
               78                1       170.615784       138.950607               0.      -101.783653
               78                2       156.409714       143.453033               0.      -106.125801
               78                3       154.562546       128.673920               0.      -99.9667206
               78                4       140.788956       132.143021               0.      -103.717552
               79                1       155.990311       155.221039               0.      -93.4475861
               79                2       141.151382       142.529373               0.      -99.0634766
               79                3       148.937332       153.197144               0.      -93.7157211
               79                4       134.984192       141.925171               0.      -98.5982513
               80                1       125.237160       143.717499               0.      -100.997902
               80                2       134.296173       155.884445               0.      -102.128983
               80                3       121.755119       157.820572               0.      -98.2038345
               80                4       129.099167       169.680420               0.      -98.8290024
               81                1       109.063721       139.169388               0.      -115.205116
               81                2       130.328735       163.541016               0.      -118.466934
               81                3       93.4454651       157.601425               0.      -110.438286
               81                4       113.898064       183.839371               0.      -113.292343
               82                1       70.1968155       193.065887               0.      -84.1661758
               82                2       51.2816124       201.989120               0.      -74.5382614
               82                3       51.0977211       168.277344               0.      -81.9851990
               82                4       32.6230164       176.288162               0.      -72.4339752
               83                1       35.6198196       193.270691               0.      -14.0400400
               83                2       95.4709167       218.786850               0.       1.42077577
               83                3       20.2459984       165.080246               0.      -27.3646832
               83                4       83.5258026       195.288391               0.      -9.44705009
               84                1       100.820900       176.280838               0.      -71.4308777
               84                2       93.2482452       193.970383               0.      -57.5755615
               84                3       82.6871872       143.970001               0.      -71.4381943
               84                4       73.9294052       159.871338               0.      -57.8994446
               85                1       74.2325134       176.177551               0.      -23.1757069
               85                2       89.0771103       185.694397               0.      -12.8784561
               85                3       66.0637283       161.015915               0.      -27.4239693
               85                4       81.5846863       170.971924               0.      -16.5546608
               86                1       86.1928024       165.857910               0.      -15.6259022
               86                2       82.9788132       158.195831               0.      -14.4273005
               86                3       93.5578232       163.959366               0.      -20.5778370
               86                4       91.6646042       156.423935               0.      -20.2574654
               87                1       85.0158386       156.481232               0.      -9.35067749
               87                2       85.6774979       156.077438               0.      -3.27963328
               87                3       101.488396       157.854614               0.      -9.54993916
               87                4       103.650917       157.367050               0.      -4.31368494
               88                1       101.796661       163.142471               0.      -43.0738564
               88                2       99.8428040       140.939865               0.      -39.4326897
               88                3       126.207321       161.579712               0.      -47.4048538
               88                4       128.164032       140.577606               0.      -44.6794815
               89                1       109.510811       140.372360               0.      -18.3226929
               89                2       115.153030       140.173584               0.      -9.23780727
               89                3       126.164993       139.593170               0.      -16.9587593
               89                4       131.618912       138.499680               0.      -9.20322800
               90                1       142.942749       114.511383               0.      -15.3809710
               90                2       158.702850       115.725090               0.      -14.2634888
               90                3       132.153839       113.759941               0.      -28.3474598
               90                4       149.192276       115.524689               0.      -25.9691906
               91                1       162.913986       74.0102768               0.      -20.4989204
               91                2       185.485901       86.2785110               0.      -18.1331940
               91                3       148.564148       66.9269180               0.      -36.5465965
               91                4       172.836838       80.1079941               0.      -32.8522797
               92                1       176.235870       23.9231014               0.      -22.5763855
               92                2       201.982437       41.1510925               0.      -21.6471653
               92                3       166.305603       19.3478336               0.      -34.3602524
               92                4       194.541245       38.5530319               0.      -33.4004135
               93                1       130.088593       119.802238               0.      -61.0254173
               93                2       163.520096       132.982697               0.      -59.9742775
               93                3       112.718246       118.908852               0.      -72.5815048
               93                4       144.487534       132.384201               0.      -72.6316681
               94                1       163.677048       93.2189407               0.      -72.0211563
               94                2       185.703796       104.999931               0.      -71.4737396
               94                3       148.790558       94.7561035               0.      -80.1932678
               94                4       170.390015       106.726494               0.      -80.1960831
               95                1       180.409790       50.2877312               0.      -77.2932281
               95                2       210.877365       70.8913803               0.      -77.6201782
               95                3       162.597839       55.7355042               0.      -89.0107193
               95                4       193.003067       76.9682770               0.      -89.8229523
               96                1       128.701126       194.718338               0.       120.154037
               96                2       142.886856       172.198349               0.       126.156624
               96                3       102.331978       160.678024               0.       115.335907
               96                4       116.888710       141.289810               0.       121.053902
               97                1       138.950607       170.615784               0.       101.783653
               97                2       143.453033       156.409714               0.       106.125801
               97                3       128.673920       154.562546               0.       99.9667206
               97                4       132.143021       140.788956               0.       103.717552
               98                1       155.221039       155.990311               0.       93.4475861
               98                2       142.529373       141.151382               0.       99.0634766
               98                3       153.197144       148.937332               0.       93.7157211
               98                4       141.925171       134.984192               0.       98.5982513
               99                1       143.717499       125.237160               0.       100.997902
               99                2       155.884445       134.296173               0.       102.128983
               99                3       157.820572       121.755119               0.       98.2038345
               99                4       169.680420       129.099167               0.       98.8290024
              100                1       139.169388       109.063721               0.       115.205116
              100                2       163.541016       130.328735               0.       118.466934
              100                3       157.601425       93.4454651               0.       110.438286
              100                4       183.839371       113.898064               0.       113.292343
              101                1       193.065887       70.1968155               0.       84.1661758
              101                2       201.989120       51.2816124               0.       74.5382614
              101                3       168.277344       51.0977211               0.       81.9851990
              101                4       176.288162       32.6230164               0.       72.4339752
              102                1       193.270691       35.6198196               0.       14.0400400
              102                2       218.786850       95.4709167               0.      -1.42077577
              102                3       165.080246       20.2459984               0.       27.3646832
              102                4       195.288391       83.5258026               0.       9.44705009
              103                1       176.280838       100.820900               0.       71.4308777
              103                2       193.970383       93.2482452               0.       57.5755615
              103                3       143.970001       82.6871872               0.       71.4381943
              103                4       159.871338       73.9294052               0.       57.8994446
              104                1       176.177551       74.2325134               0.       23.1757069
              104                2       185.694397       89.0771103               0.       12.8784561
              104                3       161.015915       66.0637283               0.       27.4239693
              104                4       170.971924       81.5846863               0.       16.5546608
              105                1       165.857910       86.1928024               0.       15.6259022
              105                2       158.195831       82.9788132               0.       14.4273005
              105                3       163.959366       93.5578232               0.       20.5778370
              105                4       156.423935       91.6646042               0.       20.2574654
              106                1       156.481232       85.0158386               0.       9.35067749
              106                2       156.077438       85.6774979               0.       3.27963328
              106                3       157.854614       101.488396               0.       9.54993916
              106                4       157.367050       103.650917               0.       4.31368494
              107                1       163.142471       101.796661               0.       43.0738564
              107                2       140.939865       99.8428040               0.       39.4326897
              107                3       161.579712       126.207321               0.       47.4048538
              107                4       140.577606       128.164032               0.       44.6794815
              108                1       140.372360       109.510811               0.       18.3226929
              108                2       140.173584       115.153030               0.       9.23780727
              108                3       139.593170       126.164993               0.       16.9587593
              108                4       138.499680       131.618912               0.       9.20322800
              109                1       114.511383       142.942749               0.       15.3809710
              109                2       115.725090       158.702850               0.       14.2634888
              109                3       113.759941       132.153839               0.       28.3474598
              109                4       115.524689       149.192276               0.       25.9691906
              110                1       74.0102768       162.913986               0.       20.4989204
              110                2       86.2785110       185.485901               0.       18.1331940
              110                3       66.9269180       148.564148               0.       36.5465965
              110                4       80.1079941       172.836838               0.       32.8522797
              111                1       23.9231014       176.235870               0.       22.5763855
              111                2       41.1510925       201.982437               0.       21.6471653
              111                3       19.3478336       166.305603               0.       34.3602524
              111                4       38.5530319       194.541245               0.       33.4004135
              112                1       119.802238       130.088593               0.       61.0254173
              112                2       132.982697       163.520096               0.       59.9742775
              112                3       118.908852       112.718246               0.       72.5815048
              112                4       132.384201       144.487534               0.       72.6316681
              113                1       93.2189407       163.677048               0.       72.0211563
              113                2       104.999931       185.703796               0.       71.4737396
              113                3       94.7561035       148.790558               0.       80.1932678
              113                4       106.726494       170.390015               0.       80.1960831
              114                1       50.2877312       180.409790               0.       77.2932281
              114                2       70.8913803       210.877365               0.       77.6201782
              114                3       55.7355042       162.597839               0.       89.0107193
              114                4       76.9682770       193.003067               0.       89.8229523
              115                1       113.944054       183.834656               0.       113.265892
              115                2       130.318085       163.502167               0.       118.449394
              115                3       93.4770203       157.585938               0.       110.409439
              115                4       109.033798       139.095947               0.       115.184311
              116                1       129.237167       169.640686               0.       98.8034210
              116                2       134.290451       155.828140               0.       102.108055
              116                3       121.927917       157.827606               0.       98.1885834
              116                4       125.276970       143.690033               0.       100.989098
              117                1       135.010010       141.921646               0.       98.6107407
              117                2       141.367798       142.689911               0.       99.1077118
              117                3       148.955231       152.983688               0.       93.7623215
              117                4       156.140579       155.113297               0.       93.5227127
              118                1       140.880890       132.268784               0.       103.789932
              118                2       156.172684       143.345551               0.       106.158455
              118                3       154.509415       128.745590               0.       100.028015
              118                4       170.490906       138.966888               0.       101.840309
              119                1       141.084778       116.682884               0.       120.991493
              119                2       172.119415       142.730667               0.       126.079872
              119                3       160.840637       102.705002               0.       115.315170
              119                4       194.725128       128.953201               0.       120.090591
              120                1       192.862244       77.1850739               0.       89.9297714
              120                2       210.879105       71.5668488               0.       77.7126999
              120                3       162.380249       55.9426575               0.       89.1449585
              120                4       180.249374       50.8672714               0.       77.4226990
              121                1       194.596146       38.7431183               0.       33.5629501
              121                2       202.048050       41.2411880               0.       21.6687527
              121                3       166.173477       19.3732357               0.       34.4690514
              121                4       176.036224       23.7989502               0.       22.5814400
              122                1       170.340790       106.879402               0.       80.2893753
              122                2       185.405090       104.651947               0.       71.6389008
              122                3       149.022827       95.0113220               0.       80.2288589
              122                4       163.771454       93.0587006               0.       72.1272430
              123                1       172.891449       80.3611908               0.       32.8676147
              123                2       185.434662       86.3077698               0.       18.1509438
              123                3       148.579529       67.1818695               0.       36.5898552
              123                4       163.059189       74.1526871               0.       20.4671459
              124                1       144.723221       132.184891               0.       72.6768036
              124                2       163.864410       132.857468               0.       60.0223198
              124                3       112.943504       118.696388               0.       72.6441956
              124                4       130.316681       119.612579               0.       61.0906715
              125                1       149.194595       115.312111               0.       25.9713097
              125                2       158.818039       115.688606               0.       14.2518387
              125                3       132.163712       113.519440               0.       28.3979397
              125                4       143.053711       114.435196               0.       15.4160633
              126                1       131.776581       138.463760               0.       9.18244171
              126                2       115.237503       140.134979               0.       9.25889969
              126                3       126.239159       139.488022               0.       16.9718933
              126                4       109.523659       140.255493               0.       18.3788280
              127                1       103.698349       157.368195               0.       4.31527233
              127                2       85.6912155       156.078354               0.       3.28009892
              127                3       101.510338       157.852341               0.       9.55350113
              127                4       85.0193558       156.477997               0.       9.35272694
              128                1       128.338303       140.527420               0.       44.7290154
              128                2       99.9113464       140.837265               0.       39.4818497
              128                3       126.390701       161.521790               0.       47.4734421
              128                4       101.861656       163.043594               0.       43.1379814
              129                1       91.6796875       156.423996               0.       20.2577171
              129                2       82.9810028       158.188507               0.       14.4279137
              129                3       93.5709839       163.948029               0.       20.5825157
              129                4       86.1912689       165.841583               0.       15.6288567
              130                1       81.5863266       170.955917               0.       16.5616169
              130                2       89.0793762       185.681900               0.       12.8935785
              130                3       66.1043167       161.015228               0.       27.4320278
              130                4       74.2667313       176.173889               0.       23.1954899
              131                1       83.5168228       195.278702               0.       9.46461105
              131                2       95.4639664       218.788422               0.      -1.40439594
              131                3       20.2390308       165.069748               0.       27.3860664
              131                4       35.5923042       193.258698               0.       14.0683632
              132                1       73.9872742       159.816589               0.       57.9525757
              132                2       93.3166580       193.929230               0.       57.6230736
              132                3       82.7206421       143.937119               0.       71.4921341
              132                4       100.858177       176.224808               0.       71.4958344
              133                1       32.6850052       176.303284               0.       72.4541321
              133                2       51.3439178       201.992294               0.       74.5519180
              133                3       51.0936203       168.277008               0.       82.0030823
              133                4       70.1907654       193.046478               0.       84.1806412
              134                1       183.834656       113.944054               0.      -113.265892
              134                2       163.502167       130.318085               0.      -118.449394
              134                3       157.585938       93.4770203               0.      -110.409439
              134                4       139.095947       109.033798               0.      -115.184311
              135                1       169.640686       129.237167               0.      -98.8034210
              135                2       155.828140       134.290451               0.      -102.108055
              135                3       157.827606       121.927917               0.      -98.1885834
              135                4       143.690033       125.276970               0.      -100.989098
              136                1       141.921646       135.010010               0.      -98.6107407
              136                2       142.689911       141.367798               0.      -99.1077118
              136                3       152.983688       148.955231               0.      -93.7623215
              136                4       155.113297       156.140579               0.      -93.5227127
              137                1       132.268784       140.880890               0.      -103.789932
              137                2       143.345551       156.172684               0.      -106.158455
              137                3       128.745590       154.509415               0.      -100.028015
              137                4       138.966888       170.490906               0.      -101.840309
              138                1       116.682884       141.084778               0.      -120.991493
              138                2       142.730667       172.119415               0.      -126.079872
              138                3       102.705002       160.840637               0.      -115.315170
              138                4       128.953201       194.725128               0.      -120.090591
              139                1       77.1850739       192.862244               0.      -89.9297714
              139                2       71.5668488       210.879105               0.      -77.7126999
              139                3       55.9426575       162.380249               0.      -89.1449585
              139                4       50.8672714       180.249374               0.      -77.4226990
              140                1       38.7431183       194.596146               0.      -33.5629501
              140                2       41.2411880       202.048050               0.      -21.6687527
              140                3       19.3732357       166.173477               0.      -34.4690514
              140                4       23.7989502       176.036224               0.      -22.5814400
              141                1       106.879402       170.340790               0.      -80.2893753
              141                2       104.651947       185.405090               0.      -71.6389008
              141                3       95.0113220       149.022827               0.      -80.2288589
              141                4       93.0587006       163.771454               0.      -72.1272430
              142                1       80.3611908       172.891449               0.      -32.8676147
              142                2       86.3077698       185.434662               0.      -18.1509438
              142                3       67.1818695       148.579529               0.      -36.5898552
              142                4       74.1526871       163.059189               0.      -20.4671459
              143                1       132.184891       144.723221               0.      -72.6768036
              143                2       132.857468       163.864410               0.      -60.0223198
              143                3       118.696388       112.943504               0.      -72.6441956
              143                4       119.612579       130.316681               0.      -61.0906715
              144                1       115.312111       149.194595               0.      -25.9713097
              144                2       115.688606       158.818039               0.      -14.2518387
              144                3       113.519440       132.163712               0.      -28.3979397
              144                4       114.435196       143.053711               0.      -15.4160633
              145                1       138.463760       131.776581               0.      -9.18244171
              145                2       140.134979       115.237503               0.      -9.25889969
              145                3       139.488022       126.239159               0.      -16.9718933
              145                4       140.255493       109.523659               0.      -18.3788280
              146                1       157.368195       103.698349               0.      -4.31527233
              146                2       156.078354       85.6912155               0.      -3.28009892
              146                3       157.852341       101.510338               0.      -9.55350113
              146                4       156.477997       85.0193558               0.      -9.35272694
              147                1       140.527420       128.338303               0.      -44.7290154
              147                2       140.837265       99.9113464               0.      -39.4818497
              147                3       161.521790       126.390701               0.      -47.4734421
              147                4       163.043594       101.861656               0.      -43.1379814
              148                1       156.423996       91.6796875               0.      -20.2577171
              148                2       158.188507       82.9810028               0.      -14.4279137
              148                3       163.948029       93.5709839               0.      -20.5825157
              148                4       165.841583       86.1912689               0.      -15.6288567
              149                1       170.955917       81.5863266               0.      -16.5616169
              149                2       185.681900       89.0793762               0.      -12.8935785
              149                3       161.015228       66.1043167               0.      -27.4320278
              149                4       176.173889       74.2667313               0.      -23.1954899
              150                1       195.278702       83.5168228               0.      -9.46461105
              150                2       218.788422       95.4639664               0.       1.40439594
              150                3       165.069748       20.2390308               0.      -27.3860664
              150                4       193.258698       35.5923042               0.      -14.0683632
              151                1       159.816589       73.9872742               0.      -57.9525757
              151                2       193.929230       93.3166580               0.      -57.6230736
              151                3       143.937119       82.7206421               0.      -71.4921341
              151                4       176.224808       100.858177               0.      -71.4958344
              152                1       176.303284       32.6850052               0.      -72.4541321
              152                2       201.992294       51.3439178               0.      -74.5519180
              152                3       168.277008       51.0936203               0.      -82.0030823
              152                4       193.046478       70.1907654               0.      -84.1806412


********************************************************************************
Field Output Report, written Mon May 12 10:42:10 2025

Source 1
---------

   ODB: C:/lnms/Vid/CrossHoleSym2/CrossHoleSym2brezU.odb
   Step: loading
   Frame: Increment      4: Step Time =   0.4000

Loc 1 : Integration point values from source 1

Output sorted by column "Element Label".

Field Output reported at integration points for part: SPECIMEN-1

          Element              Int            S.S11            S.S22            S.S33            S.S12
            Label               Pt           @Loc 1           @Loc 1           @Loc 1           @Loc 1
-------------------------------------------------------------------------------------------------------
                1                1       214.054306       132.746063               0.      -133.212097
                1                2       189.756653       151.041306               0.      -139.527115
                1                3       182.687988       109.019127               0.      -128.597351
                1                4       160.795319       126.205597               0.      -134.375870
                2                1       195.933517       148.031433               0.      -114.997925
                2                2       179.212280       153.942337               0.      -119.087677
                2                3       181.334381       138.945114               0.      -113.792328
                2                4       164.222076       142.761108               0.      -117.183189
                3                1       161.604553       153.970169               0.      -114.391289
                3                2       162.688660       161.408722               0.      -114.949715
                3                3       174.621567       170.781174               0.      -108.764595
                3                4       177.248917       179.213501               0.      -108.473289
                4                1       150.528519       160.599075               0.      -120.515930
                4                2       163.805618       178.901047               0.      -123.795418
                4                3       146.875748       177.113297               0.      -115.855003
                4                4       159.159729       196.298431               0.      -118.423996
                5                1       134.590103       162.535217               0.      -140.901794
                5                2       164.895157       198.886856               0.      -148.214691
                5                3       118.976318       185.792984               0.      -134.075439
                5                4       149.365204       225.732452               0.      -141.024399
                6                1       88.2499924       223.362045               0.      -105.734680
                6                2       82.7268524       244.897583               0.      -91.1596451
                6                3       63.7199211       186.418991               0.      -103.536507
                6                4       58.9120560       207.639725               0.      -89.7607040
                7                1       43.8526077       225.604675               0.      -39.6115341
                7                2       47.1793861       234.701492               0.      -25.3665791
                7                3       21.2178955       190.359055               0.      -40.2823677
                7                4       26.7703190       202.508698               0.      -26.2114124
                8                1       121.296021       195.379272               0.      -92.9602280
                8                2       118.575104       213.413239               0.      -82.3709564
                8                3       106.526932       169.012161               0.      -92.2843628
                8                4       104.177429       186.693192               0.      -82.3986740
                9                1       90.5421600       197.946289               0.      -37.7799644
                9                2       98.0551834       213.047241               0.      -21.0244942
                9                3       74.0323410       167.165085               0.      -41.2257996
                9                4       82.5687866       184.150864               0.      -23.2616005
               10                1       149.981964       164.049591               0.      -83.6502991
               10                2       150.639221       187.254517               0.      -68.6190491
               10                3       133.004776       125.402390               0.      -83.1378784
               10                4       133.937820       146.510284               0.      -69.4143295
               11                1       129.806458       168.986496               0.      -29.1841011
               11                2       130.688049       180.045670               0.      -16.1208019
               11                3       125.495926       147.568924               0.      -31.3971214
               11                4       126.724640       159.518539               0.      -17.1583061
               12                1       155.397003       147.975723               0.      -10.2662840
               12                2       155.277756       127.592155               0.      -10.2581968
               12                3       156.573776       141.747482               0.      -19.0776768
               12                4       155.685547       121.398651               0.      -20.5108452
               13                1       176.187805       116.735245               0.      -5.00318766
               13                2       173.571228       95.5299454               0.      -3.73562789
               13                3       177.206955       114.485481               0.      -10.9204359
               13                4       174.637863       95.0751495               0.      -10.5858154
               14                1       159.213272       144.349701               0.      -50.6658058
               14                2       157.586334       110.669182               0.      -44.2926598
               14                3       184.305023       143.259369               0.      -54.2773399
               14                4       184.694717       114.309937               0.      -49.0717850
               15                1       175.858063       102.780655               0.      -22.9870148
               15                2       177.398819       92.9724121               0.      -16.3079758
               15                3       186.125687       105.958054               0.      -23.4647312
               15                4       188.004868       97.6302795               0.      -17.7372417
               16                1       194.711456       92.6665497               0.      -18.8074570
               16                2       213.463379       102.151108               0.      -14.7063770
               16                3       182.405212       73.8291626               0.      -31.1210518
               16                4       201.509186       83.9017868               0.      -26.5011082
               17                1       225.393753       96.3354187               0.      -10.8393831
               17                2       254.553986       110.985786               0.       1.44749475
               17                3       188.469727       22.1323719               0.      -31.2787361
               17                4       222.713974       40.0029221               0.      -16.4102898
               18                1       181.116089       82.6435089               0.      -66.2669830
               18                2       223.257538       106.200287               0.      -66.7043533
               18                3       162.504379       92.5299911               0.      -82.4087982
               18                4       202.275955       114.759125               0.      -83.3311691
               19                1       203.980362       37.3501434               0.      -84.0627441
               19                2       235.803970       59.1697273               0.      -87.0926666
               19                3       193.689896       58.3211899               0.      -95.7875214
               19                4       224.569763       80.8348541               0.      -99.1016006
               20                1       225.717911       149.062790               0.      -141.097198
               20                2       198.979340       165.066727               0.      -148.307983
               20                3       185.606949       118.549019               0.      -134.098602
               20                4       162.781662       134.827789               0.      -140.988708
               21                1       196.454193       159.149094               0.      -118.362503
               21                2       179.190842       163.952347               0.      -123.766136
               21                3       177.175812       146.792679               0.      -115.783524
               21                4       160.487335       150.387604               0.      -120.427505
               22                1       179.026184       177.371414               0.      -108.384880
               22                2       161.148895       162.491348               0.      -114.893356
               22                3       170.757980       174.873550               0.      -108.713890
               22                4       153.943130       161.607010               0.      -114.377785
               23                1       142.718262       164.254700               0.      -117.194862
               23                2       153.952728       179.280060               0.      -119.113892
               23                3       138.740829       181.325195               0.      -113.809349
               23                4       147.867432       195.981262               0.      -115.027740
               24                1       126.243034       160.884369               0.      -134.402023
               24                2       151.056305       189.805374               0.      -139.548065
               24                3       108.982689       182.707520               0.      -128.632233
               24                4       132.692291       214.060837               0.      -133.243744
               25                1       80.8448181       224.594437               0.      -99.0853271
               25                2       59.0942764       235.800522               0.      -87.0774994
               25                3       58.3283272       193.691116               0.      -95.7676926
               25                4       37.2751350       203.962936               0.      -84.0405350
               26                1       40.0406151       222.729111               0.      -16.3777924
               26                2       110.994499       254.551208               0.       1.46627831
               26                3       22.1453323       188.483368               0.      -31.2538834
               26                4       96.3468933       225.405426               0.      -10.8188353
               27                1       114.722504       202.343216               0.      -83.2554398
               27                2       106.122772       223.307510               0.      -66.6505127
               27                3       92.4979782       162.542969               0.      -82.3471985
               27                4       82.5801163       181.183411               0.      -66.2086639
               28                1       83.8620377       201.511749               0.      -26.4785595
               28                2       102.148911       213.478256               0.      -14.6886978
               28                3       73.7821579       182.404327               0.      -31.1123238
               28                4       92.6653671       194.730988               0.      -18.7993946
               29                1       97.6325912       188.025024               0.      -17.7335320
               29                2       92.9698334       177.407547               0.      -16.3070564
               29                3       105.941864       186.138153               0.      -23.4588737
               29                4       102.761253       175.856094               0.      -22.9862766
               30                1       95.0703354       174.641068               0.      -10.5835667
               30                2       95.5130997       173.569061               0.      -3.73562312
               30                3       114.457436       177.207336               0.      -10.9164534
               30                4       116.676910       176.182602               0.      -5.00174475
               31                1       114.240616       184.813812               0.      -48.9995499
               31                2       110.598152       157.708878               0.      -44.2386475
               31                3       143.046982       184.368088               0.      -54.1971283
               31                4       144.147675       159.265762               0.      -50.6073074
               32                1       121.397896       155.828430               0.      -20.4505692
               32                2       127.494324       155.315811               0.      -10.2347803
               32                3       141.670853       156.696640               0.      -19.0628643
               32                4       147.782715       155.421600               0.      -10.2874651
               33                1       159.376923       126.796165               0.      -17.1139984
               33                2       179.904129       130.720963               0.      -16.1284561
               33                3       147.569550       125.778793               0.      -31.3449039
               33                4       169.006454       130.066101               0.      -29.1841755
               34                1       183.961823       82.3919525               0.      -23.2908039
               34                2       213.112061       98.0200958               0.      -21.0007648
               34                3       167.135422       73.7311707               0.      -41.1738205
               34                4       197.871811       90.2360077               0.      -37.7584190
               35                1       202.760345       26.9131012               0.      -26.2075520
               35                2       234.621735       47.0878754               0.      -25.3422794
               35                3       190.528442       21.2140274               0.      -40.1687126
               35                4       225.542389       43.6755943               0.      -39.4287491
               36                1       146.245712       134.150955               0.      -69.3405991
               36                2       186.846970       150.770218               0.      -68.5610275
               36                3       125.136307       133.248611               0.      -83.0649490
               36                4       163.770920       150.209702               0.      -83.5955658
               37                1       186.561508       104.363228               0.      -82.2716599
               37                2       213.772552       119.004379               0.      -82.1932297
               37                3       168.722778       106.210327               0.      -92.2350845
               37                4       195.437805       121.114609               0.      -92.8582611
               38                1       207.847412       58.2551384               0.      -89.6350632
               38                2       244.893204       81.9417114               0.      -91.0654678
               38                3       186.698547       63.5045547               0.      -103.388512
               38                4       223.537201       88.0106201               0.      -105.611740
               39                1       132.746063       214.054306               0.       133.212097
               39                2       151.041306       189.756653               0.       139.527115
               39                3       109.019127       182.687988               0.       128.597351
               39                4       126.205597       160.795319               0.       134.375870
               40                1       148.031433       195.933517               0.       114.997925
               40                2       153.942337       179.212280               0.       119.087677
               40                3       138.945114       181.334381               0.       113.792328
               40                4       142.761108       164.222076               0.       117.183189
               41                1       153.970169       161.604553               0.       114.391289
               41                2       161.408722       162.688660               0.       114.949715
               41                3       170.781174       174.621567               0.       108.764595
               41                4       179.213501       177.248917               0.       108.473289
               42                1       160.599075       150.528519               0.       120.515930
               42                2       178.901047       163.805618               0.       123.795418
               42                3       177.113297       146.875748               0.       115.855003
               42                4       196.298431       159.159729               0.       118.423996
               43                1       162.535217       134.590103               0.       140.901794
               43                2       198.886856       164.895157               0.       148.214691
               43                3       185.792984       118.976318               0.       134.075439
               43                4       225.732452       149.365204               0.       141.024399
               44                1       223.362045       88.2499924               0.       105.734680
               44                2       244.897583       82.7268524               0.       91.1596451
               44                3       186.418991       63.7199211               0.       103.536507
               44                4       207.639725       58.9120560               0.       89.7607040
               45                1       225.604675       43.8526077               0.       39.6115341
               45                2       234.701492       47.1793861               0.       25.3665791
               45                3       190.359055       21.2178955               0.       40.2823677
               45                4       202.508698       26.7703190               0.       26.2114124
               46                1       195.379272       121.296021               0.       92.9602280
               46                2       213.413239       118.575104               0.       82.3709564
               46                3       169.012161       106.526932               0.       92.2843628
               46                4       186.693192       104.177429               0.       82.3986740
               47                1       197.946289       90.5421600               0.       37.7799644
               47                2       213.047241       98.0551834               0.       21.0244942
               47                3       167.165085       74.0323410               0.       41.2257996
               47                4       184.150864       82.5687866               0.       23.2616005
               48                1       164.049591       149.981964               0.       83.6502991
               48                2       187.254517       150.639221               0.       68.6190491
               48                3       125.402390       133.004776               0.       83.1378784
               48                4       146.510284       133.937820               0.       69.4143295
               49                1       168.986496       129.806458               0.       29.1841011
               49                2       180.045670       130.688049               0.       16.1208019
               49                3       147.568924       125.495926               0.       31.3971214
               49                4       159.518539       126.724640               0.       17.1583061
               50                1       147.975723       155.397003               0.       10.2662840
               50                2       127.592155       155.277756               0.       10.2581968
               50                3       141.747482       156.573776               0.       19.0776768
               50                4       121.398651       155.685547               0.       20.5108452
               51                1       116.735245       176.187805               0.       5.00318766
               51                2       95.5299454       173.571228               0.       3.73562789
               51                3       114.485481       177.206955               0.       10.9204359
               51                4       95.0751495       174.637863               0.       10.5858154
               52                1       144.349701       159.213272               0.       50.6658058
               52                2       110.669182       157.586334               0.       44.2926598
               52                3       143.259369       184.305023               0.       54.2773399
               52                4       114.309937       184.694717               0.       49.0717850
               53                1       102.780655       175.858063               0.       22.9870148
               53                2       92.9724121       177.398819               0.       16.3079758
               53                3       105.958054       186.125687               0.       23.4647312
               53                4       97.6302795       188.004868               0.       17.7372417
               54                1       92.6665497       194.711456               0.       18.8074570
               54                2       102.151108       213.463379               0.       14.7063770
               54                3       73.8291626       182.405212               0.       31.1210518
               54                4       83.9017868       201.509186               0.       26.5011082
               55                1       96.3354187       225.393753               0.       10.8393831
               55                2       110.985786       254.553986               0.      -1.44749475
               55                3       22.1323719       188.469727               0.       31.2787361
               55                4       40.0029221       222.713974               0.       16.4102898
               56                1       82.6435089       181.116089               0.       66.2669830
               56                2       106.200287       223.257538               0.       66.7043533
               56                3       92.5299911       162.504379               0.       82.4087982
               56                4       114.759125       202.275955               0.       83.3311691
               57                1       37.3501434       203.980362               0.       84.0627441
               57                2       59.1697273       235.803970               0.       87.0926666
               57                3       58.3211899       193.689896               0.       95.7875214
               57                4       80.8348541       224.569763               0.       99.1016006
               58                1       149.062790       225.717911               0.       141.097198
               58                2       165.066727       198.979340               0.       148.307983
               58                3       118.549019       185.606949               0.       134.098602
               58                4       134.827789       162.781662               0.       140.988708
               59                1       159.149094       196.454193               0.       118.362503
               59                2       163.952347       179.190842               0.       123.766136
               59                3       146.792679       177.175812               0.       115.783524
               59                4       150.387604       160.487335               0.       120.427505
               60                1       177.371414       179.026184               0.       108.384880
               60                2       162.491348       161.148895               0.       114.893356
               60                3       174.873550       170.757980               0.       108.713890
               60                4       161.607010       153.943130               0.       114.377785
               61                1       164.254700       142.718262               0.       117.194862
               61                2       179.280060       153.952728               0.       119.113892
               61                3       181.325195       138.740829               0.       113.809349
               61                4       195.981262       147.867432               0.       115.027740
               62                1       160.884369       126.243034               0.       134.402023
               62                2       189.805374       151.056305               0.       139.548065
               62                3       182.707520       108.982689               0.       128.632233
               62                4       214.060837       132.692291               0.       133.243744
               63                1       224.594437       80.8448181               0.       99.0853271
               63                2       235.800522       59.0942764               0.       87.0774994
               63                3       193.691116       58.3283272               0.       95.7676926
               63                4       203.962936       37.2751350               0.       84.0405350
               64                1       222.729111       40.0406151               0.       16.3777924
               64                2       254.551208       110.994499               0.      -1.46627831
               64                3       188.483368       22.1453323               0.       31.2538834
               64                4       225.405426       96.3468933               0.       10.8188353
               65                1       202.343216       114.722504               0.       83.2554398
               65                2       223.307510       106.122772               0.       66.6505127
               65                3       162.542969       92.4979782               0.       82.3471985
               65                4       181.183411       82.5801163               0.       66.2086639
               66                1       201.511749       83.8620377               0.       26.4785595
               66                2       213.478256       102.148911               0.       14.6886978
               66                3       182.404327       73.7821579               0.       31.1123238
               66                4       194.730988       92.6653671               0.       18.7993946
               67                1       188.025024       97.6325912               0.       17.7335320
               67                2       177.407547       92.9698334               0.       16.3070564
               67                3       186.138153       105.941864               0.       23.4588737
               67                4       175.856094       102.761253               0.       22.9862766
               68                1       174.641068       95.0703354               0.       10.5835667
               68                2       173.569061       95.5130997               0.       3.73562312
               68                3       177.207336       114.457436               0.       10.9164534
               68                4       176.182602       116.676910               0.       5.00174475
               69                1       184.813812       114.240616               0.       48.9995499
               69                2       157.708878       110.598152               0.       44.2386475
               69                3       184.368088       143.046982               0.       54.1971283
               69                4       159.265762       144.147675               0.       50.6073074
               70                1       155.828430       121.397896               0.       20.4505692
               70                2       155.315811       127.494324               0.       10.2347803
               70                3       156.696640       141.670853               0.       19.0628643
               70                4       155.421600       147.782715               0.       10.2874651
               71                1       126.796165       159.376923               0.       17.1139984
               71                2       130.720963       179.904129               0.       16.1284561
               71                3       125.778793       147.569550               0.       31.3449039
               71                4       130.066101       169.006454               0.       29.1841755
               72                1       82.3919525       183.961823               0.       23.2908039
               72                2       98.0200958       213.112061               0.       21.0007648
               72                3       73.7311707       167.135422               0.       41.1738205
               72                4       90.2360077       197.871811               0.       37.7584190
               73                1       26.9131012       202.760345               0.       26.2075520
               73                2       47.0878754       234.621735               0.       25.3422794
               73                3       21.2140274       190.528442               0.       40.1687126
               73                4       43.6755943       225.542389               0.       39.4287491
               74                1       134.150955       146.245712               0.       69.3405991
               74                2       150.770218       186.846970               0.       68.5610275
               74                3       133.248611       125.136307               0.       83.0649490
               74                4       150.209702       163.770920               0.       83.5955658
               75                1       104.363228       186.561508               0.       82.2716599
               75                2       119.004379       213.772552               0.       82.1932297
               75                3       106.210327       168.722778               0.       92.2350845
               75                4       121.114609       195.437805               0.       92.8582611
               76                1       58.2551384       207.847412               0.       89.6350632
               76                2       81.9417114       244.893204               0.       91.0654678
               76                3       63.5045547       186.698547               0.       103.388512
               76                4       88.0106201       223.537201               0.       105.611740
               77                1       225.717911       149.062790               0.      -141.097198
               77                2       198.979340       165.066727               0.      -148.307983
               77                3       185.606949       118.549019               0.      -134.098602
               77                4       162.781662       134.827789               0.      -140.988708
               78                1       196.454193       159.149094               0.      -118.362503
               78                2       179.190842       163.952347               0.      -123.766136
               78                3       177.175812       146.792679               0.      -115.783524
               78                4       160.487335       150.387604               0.      -120.427505
               79                1       179.026184       177.371414               0.      -108.384880
               79                2       161.148895       162.491348               0.      -114.893356
               79                3       170.757980       174.873550               0.      -108.713890
               79                4       153.943130       161.607010               0.      -114.377785
               80                1       142.718262       164.254700               0.      -117.194862
               80                2       153.952728       179.280060               0.      -119.113892
               80                3       138.740829       181.325195               0.      -113.809349
               80                4       147.867432       195.981262               0.      -115.027740
               81                1       126.243034       160.884369               0.      -134.402023
               81                2       151.056305       189.805374               0.      -139.548065
               81                3       108.982689       182.707520               0.      -128.632233
               81                4       132.692291       214.060837               0.      -133.243744
               82                1       80.8448181       224.594437               0.      -99.0853271
               82                2       59.0942764       235.800522               0.      -87.0774994
               82                3       58.3283272       193.691116               0.      -95.7676926
               82                4       37.2751350       203.962936               0.      -84.0405350
               83                1       40.0406151       222.729111               0.      -16.3777924
               83                2       110.994499       254.551208               0.       1.46627831
               83                3       22.1453323       188.483368               0.      -31.2538834
               83                4       96.3468933       225.405426               0.      -10.8188353
               84                1       114.722504       202.343216               0.      -83.2554398
               84                2       106.122772       223.307510               0.      -66.6505127
               84                3       92.4979782       162.542969               0.      -82.3471985
               84                4       82.5801163       181.183411               0.      -66.2086639
               85                1       83.8620377       201.511749               0.      -26.4785595
               85                2       102.148911       213.478256               0.      -14.6886978
               85                3       73.7821579       182.404327               0.      -31.1123238
               85                4       92.6653671       194.730988               0.      -18.7993946
               86                1       97.6325912       188.025024               0.      -17.7335320
               86                2       92.9698334       177.407547               0.      -16.3070564
               86                3       105.941864       186.138153               0.      -23.4588737
               86                4       102.761253       175.856094               0.      -22.9862766
               87                1       95.0703354       174.641068               0.      -10.5835667
               87                2       95.5130997       173.569061               0.      -3.73562312
               87                3       114.457436       177.207336               0.      -10.9164534
               87                4       116.676910       176.182602               0.      -5.00174475
               88                1       114.240616       184.813812               0.      -48.9995499
               88                2       110.598152       157.708878               0.      -44.2386475
               88                3       143.046982       184.368088               0.      -54.1971283
               88                4       144.147675       159.265762               0.      -50.6073074
               89                1       121.397896       155.828430               0.      -20.4505692
               89                2       127.494324       155.315811               0.      -10.2347803
               89                3       141.670853       156.696640               0.      -19.0628643
               89                4       147.782715       155.421600               0.      -10.2874651
               90                1       159.376923       126.796165               0.      -17.1139984
               90                2       179.904129       130.720963               0.      -16.1284561
               90                3       147.569550       125.778793               0.      -31.3449039
               90                4       169.006454       130.066101               0.      -29.1841755
               91                1       183.961823       82.3919525               0.      -23.2908039
               91                2       213.112061       98.0200958               0.      -21.0007648
               91                3       167.135422       73.7311707               0.      -41.1738205
               91                4       197.871811       90.2360077               0.      -37.7584190
               92                1       202.760345       26.9131012               0.      -26.2075520
               92                2       234.621735       47.0878754               0.      -25.3422794
               92                3       190.528442       21.2140274               0.      -40.1687126
               92                4       225.542389       43.6755943               0.      -39.4287491
               93                1       146.245712       134.150955               0.      -69.3405991
               93                2       186.846970       150.770218               0.      -68.5610275
               93                3       125.136307       133.248611               0.      -83.0649490
               93                4       163.770920       150.209702               0.      -83.5955658
               94                1       186.561508       104.363228               0.      -82.2716599
               94                2       213.772552       119.004379               0.      -82.1932297
               94                3       168.722778       106.210327               0.      -92.2350845
               94                4       195.437805       121.114609               0.      -92.8582611
               95                1       207.847412       58.2551384               0.      -89.6350632
               95                2       244.893204       81.9417114               0.      -91.0654678
               95                3       186.698547       63.5045547               0.      -103.388512
               95                4       223.537201       88.0106201               0.      -105.611740
               96                1       149.062790       225.717911               0.       141.097198
               96                2       165.066727       198.979340               0.       148.307983
               96                3       118.549019       185.606949               0.       134.098602
               96                4       134.827789       162.781662               0.       140.988708
               97                1       159.149094       196.454193               0.       118.362503
               97                2       163.952347       179.190842               0.       123.766136
               97                3       146.792679       177.175812               0.       115.783524
               97                4       150.387604       160.487335               0.       120.427505
               98                1       177.371414       179.026184               0.       108.384880
               98                2       162.491348       161.148895               0.       114.893356
               98                3       174.873550       170.757980               0.       108.713890
               98                4       161.607010       153.943130               0.       114.377785
               99                1       164.254700       142.718262               0.       117.194862
               99                2       179.280060       153.952728               0.       119.113892
               99                3       181.325195       138.740829               0.       113.809349
               99                4       195.981262       147.867432               0.       115.027740
              100                1       160.884369       126.243034               0.       134.402023
              100                2       189.805374       151.056305               0.       139.548065
              100                3       182.707520       108.982689               0.       128.632233
              100                4       214.060837       132.692291               0.       133.243744
              101                1       224.594437       80.8448181               0.       99.0853271
              101                2       235.800522       59.0942764               0.       87.0774994
              101                3       193.691116       58.3283272               0.       95.7676926
              101                4       203.962936       37.2751350               0.       84.0405350
              102                1       222.729111       40.0406151               0.       16.3777924
              102                2       254.551208       110.994499               0.      -1.46627831
              102                3       188.483368       22.1453323               0.       31.2538834
              102                4       225.405426       96.3468933               0.       10.8188353
              103                1       202.343216       114.722504               0.       83.2554398
              103                2       223.307510       106.122772               0.       66.6505127
              103                3       162.542969       92.4979782               0.       82.3471985
              103                4       181.183411       82.5801163               0.       66.2086639
              104                1       201.511749       83.8620377               0.       26.4785595
              104                2       213.478256       102.148911               0.       14.6886978
              104                3       182.404327       73.7821579               0.       31.1123238
              104                4       194.730988       92.6653671               0.       18.7993946
              105                1       188.025024       97.6325912               0.       17.7335320
              105                2       177.407547       92.9698334               0.       16.3070564
              105                3       186.138153       105.941864               0.       23.4588737
              105                4       175.856094       102.761253               0.       22.9862766
              106                1       174.641068       95.0703354               0.       10.5835667
              106                2       173.569061       95.5130997               0.       3.73562312
              106                3       177.207336       114.457436               0.       10.9164534
              106                4       176.182602       116.676910               0.       5.00174475
              107                1       184.813812       114.240616               0.       48.9995499
              107                2       157.708878       110.598152               0.       44.2386475
              107                3       184.368088       143.046982               0.       54.1971283
              107                4       159.265762       144.147675               0.       50.6073074
              108                1       155.828430       121.397896               0.       20.4505692
              108                2       155.315811       127.494324               0.       10.2347803
              108                3       156.696640       141.670853               0.       19.0628643
              108                4       155.421600       147.782715               0.       10.2874651
              109                1       126.796165       159.376923               0.       17.1139984
              109                2       130.720963       179.904129               0.       16.1284561
              109                3       125.778793       147.569550               0.       31.3449039
              109                4       130.066101       169.006454               0.       29.1841755
              110                1       82.3919525       183.961823               0.       23.2908039
              110                2       98.0200958       213.112061               0.       21.0007648
              110                3       73.7311707       167.135422               0.       41.1738205
              110                4       90.2360077       197.871811               0.       37.7584190
              111                1       26.9131012       202.760345               0.       26.2075520
              111                2       47.0878754       234.621735               0.       25.3422794
              111                3       21.2140274       190.528442               0.       40.1687126
              111                4       43.6755943       225.542389               0.       39.4287491
              112                1       134.150955       146.245712               0.       69.3405991
              112                2       150.770218       186.846970               0.       68.5610275
              112                3       133.248611       125.136307               0.       83.0649490
              112                4       150.209702       163.770920               0.       83.5955658
              113                1       104.363228       186.561508               0.       82.2716599
              113                2       119.004379       213.772552               0.       82.1932297
              113                3       106.210327       168.722778               0.       92.2350845
              113                4       121.114609       195.437805               0.       92.8582611
              114                1       58.2551384       207.847412               0.       89.6350632
              114                2       81.9417114       244.893204               0.       91.0654678
              114                3       63.5045547       186.698547               0.       103.388512
              114                4       88.0106201       223.537201               0.       105.611740
              115                1       132.746063       214.054306               0.       133.212097
              115                2       151.041306       189.756653               0.       139.527115
              115                3       109.019127       182.687988               0.       128.597351
              115                4       126.205597       160.795319               0.       134.375870
              116                1       148.031433       195.933517               0.       114.997925
              116                2       153.942337       179.212280               0.       119.087677
              116                3       138.945114       181.334381               0.       113.792328
              116                4       142.761108       164.222076               0.       117.183189
              117                1       153.970169       161.604553               0.       114.391289
              117                2       161.408722       162.688660               0.       114.949715
              117                3       170.781174       174.621567               0.       108.764595
              117                4       179.213501       177.248917               0.       108.473289
              118                1       160.599075       150.528519               0.       120.515930
              118                2       178.901047       163.805618               0.       123.795418
              118                3       177.113297       146.875748               0.       115.855003
              118                4       196.298431       159.159729               0.       118.423996
              119                1       162.535217       134.590103               0.       140.901794
              119                2       198.886856       164.895157               0.       148.214691
              119                3       185.792984       118.976318               0.       134.075439
              119                4       225.732452       149.365204               0.       141.024399
              120                1       223.362045       88.2499924               0.       105.734680
              120                2       244.897583       82.7268524               0.       91.1596451
              120                3       186.418991       63.7199211               0.       103.536507
              120                4       207.639725       58.9120560               0.       89.7607040
              121                1       225.604675       43.8526077               0.       39.6115341
              121                2       234.701492       47.1793861               0.       25.3665791
              121                3       190.359055       21.2178955               0.       40.2823677
              121                4       202.508698       26.7703190               0.       26.2114124
              122                1       195.379272       121.296021               0.       92.9602280
              122                2       213.413239       118.575104               0.       82.3709564
              122                3       169.012161       106.526932               0.       92.2843628
              122                4       186.693192       104.177429               0.       82.3986740
              123                1       197.946289       90.5421600               0.       37.7799644
              123                2       213.047241       98.0551834               0.       21.0244942
              123                3       167.165085       74.0323410               0.       41.2257996
              123                4       184.150864       82.5687866               0.       23.2616005
              124                1       164.049591       149.981964               0.       83.6502991
              124                2       187.254517       150.639221               0.       68.6190491
              124                3       125.402390       133.004776               0.       83.1378784
              124                4       146.510284       133.937820               0.       69.4143295
              125                1       168.986496       129.806458               0.       29.1841011
              125                2       180.045670       130.688049               0.       16.1208019
              125                3       147.568924       125.495926               0.       31.3971214
              125                4       159.518539       126.724640               0.       17.1583061
              126                1       147.975723       155.397003               0.       10.2662840
              126                2       127.592155       155.277756               0.       10.2581968
              126                3       141.747482       156.573776               0.       19.0776768
              126                4       121.398651       155.685547               0.       20.5108452
              127                1       116.735245       176.187805               0.       5.00318766
              127                2       95.5299454       173.571228               0.       3.73562789
              127                3       114.485481       177.206955               0.       10.9204359
              127                4       95.0751495       174.637863               0.       10.5858154
              128                1       144.349701       159.213272               0.       50.6658058
              128                2       110.669182       157.586334               0.       44.2926598
              128                3       143.259369       184.305023               0.       54.2773399
              128                4       114.309937       184.694717               0.       49.0717850
              129                1       102.780655       175.858063               0.       22.9870148
              129                2       92.9724121       177.398819               0.       16.3079758
              129                3       105.958054       186.125687               0.       23.4647312
              129                4       97.6302795       188.004868               0.       17.7372417
              130                1       92.6665497       194.711456               0.       18.8074570
              130                2       102.151108       213.463379               0.       14.7063770
              130                3       73.8291626       182.405212               0.       31.1210518
              130                4       83.9017868       201.509186               0.       26.5011082
              131                1       96.3354187       225.393753               0.       10.8393831
              131                2       110.985786       254.553986               0.      -1.44749475
              131                3       22.1323719       188.469727               0.       31.2787361
              131                4       40.0029221       222.713974               0.       16.4102898
              132                1       82.6435089       181.116089               0.       66.2669830
              132                2       106.200287       223.257538               0.       66.7043533
              132                3       92.5299911       162.504379               0.       82.4087982
              132                4       114.759125       202.275955               0.       83.3311691
              133                1       37.3501434       203.980362               0.       84.0627441
              133                2       59.1697273       235.803970               0.       87.0926666
              133                3       58.3211899       193.689896               0.       95.7875214
              133                4       80.8348541       224.569763               0.       99.1016006
              134                1       214.054306       132.746063               0.      -133.212097
              134                2       189.756653       151.041306               0.      -139.527115
              134                3       182.687988       109.019127               0.      -128.597351
              134                4       160.795319       126.205597               0.      -134.375870
              135                1       195.933517       148.031433               0.      -114.997925
              135                2       179.212280       153.942337               0.      -119.087677
              135                3       181.334381       138.945114               0.      -113.792328
              135                4       164.222076       142.761108               0.      -117.183189
              136                1       161.604553       153.970169               0.      -114.391289
              136                2       162.688660       161.408722               0.      -114.949715
              136                3       174.621567       170.781174               0.      -108.764595
              136                4       177.248917       179.213501               0.      -108.473289
              137                1       150.528519       160.599075               0.      -120.515930
              137                2       163.805618       178.901047               0.      -123.795418
              137                3       146.875748       177.113297               0.      -115.855003
              137                4       159.159729       196.298431               0.      -118.423996
              138                1       134.590103       162.535217               0.      -140.901794
              138                2       164.895157       198.886856               0.      -148.214691
              138                3       118.976318       185.792984               0.      -134.075439
              138                4       149.365204       225.732452               0.      -141.024399
              139                1       88.2499924       223.362045               0.      -105.734680
              139                2       82.7268524       244.897583               0.      -91.1596451
              139                3       63.7199211       186.418991               0.      -103.536507
              139                4       58.9120560       207.639725               0.      -89.7607040
              140                1       43.8526077       225.604675               0.      -39.6115341
              140                2       47.1793861       234.701492               0.      -25.3665791
              140                3       21.2178955       190.359055               0.      -40.2823677
              140                4       26.7703190       202.508698               0.      -26.2114124
              141                1       121.296021       195.379272               0.      -92.9602280
              141                2       118.575104       213.413239               0.      -82.3709564
              141                3       106.526932       169.012161               0.      -92.2843628
              141                4       104.177429       186.693192               0.      -82.3986740
              142                1       90.5421600       197.946289               0.      -37.7799644
              142                2       98.0551834       213.047241               0.      -21.0244942
              142                3       74.0323410       167.165085               0.      -41.2257996
              142                4       82.5687866       184.150864               0.      -23.2616005
              143                1       149.981964       164.049591               0.      -83.6502991
              143                2       150.639221       187.254517               0.      -68.6190491
              143                3       133.004776       125.402390               0.      -83.1378784
              143                4       133.937820       146.510284               0.      -69.4143295
              144                1       129.806458       168.986496               0.      -29.1841011
              144                2       130.688049       180.045670               0.      -16.1208019
              144                3       125.495926       147.568924               0.      -31.3971214
              144                4       126.724640       159.518539               0.      -17.1583061
              145                1       155.397003       147.975723               0.      -10.2662840
              145                2       155.277756       127.592155               0.      -10.2581968
              145                3       156.573776       141.747482               0.      -19.0776768
              145                4       155.685547       121.398651               0.      -20.5108452
              146                1       176.187805       116.735245               0.      -5.00318766
              146                2       173.571228       95.5299454               0.      -3.73562789
              146                3       177.206955       114.485481               0.      -10.9204359
              146                4       174.637863       95.0751495               0.      -10.5858154
              147                1       159.213272       144.349701               0.      -50.6658058
              147                2       157.586334       110.669182               0.      -44.2926598
              147                3       184.305023       143.259369               0.      -54.2773399
              147                4       184.694717       114.309937               0.      -49.0717850
              148                1       175.858063       102.780655               0.      -22.9870148
              148                2       177.398819       92.9724121               0.      -16.3079758
              148                3       186.125687       105.958054               0.      -23.4647312
              148                4       188.004868       97.6302795               0.      -17.7372417
              149                1       194.711456       92.6665497               0.      -18.8074570
              149                2       213.463379       102.151108               0.      -14.7063770
              149                3       182.405212       73.8291626               0.      -31.1210518
              149                4       201.509186       83.9017868               0.      -26.5011082
              150                1       225.393753       96.3354187               0.      -10.8393831
              150                2       254.553986       110.985786               0.       1.44749475
              150                3       188.469727       22.1323719               0.      -31.2787361
              150                4       222.713974       40.0029221               0.      -16.4102898
              151                1       181.116089       82.6435089               0.      -66.2669830
              151                2       223.257538       106.200287               0.      -66.7043533
              151                3       162.504379       92.5299911               0.      -82.4087982
              151                4       202.275955       114.759125               0.      -83.3311691
              152                1       203.980362       37.3501434               0.      -84.0627441
              152                2       235.803970       59.1697273               0.      -87.0926666
              152                3       193.689896       58.3211899               0.      -95.7875214
              152                4       224.569763       80.8348541               0.      -99.1016006


********************************************************************************
Field Output Report, written Mon May 12 10:42:51 2025

Source 1
---------

   ODB: C:/lnms/Vid/CrossHoleSym2/CrossHoleSym2brezU.odb
   Step: loading
   Frame: Increment      5: Step Time =   0.5000

Loc 1 : Integration point values from source 1

Output sorted by column "Element Label".

Field Output reported at integration points for part: SPECIMEN-1

          Element              Int            S.S11            S.S22            S.S33            S.S12
            Label               Pt           @Loc 1           @Loc 1           @Loc 1           @Loc 1
-------------------------------------------------------------------------------------------------------
                1                1       243.391495       151.259216               0.      -152.842163
                1                2       215.112198       170.948685               0.      -160.300781
                1                3       207.505203       124.801414               0.      -146.549576
                1                4       182.192581       143.136017               0.      -153.340134
                2                1       221.597229       166.395111               0.      -131.202133
                2                2       201.918793       172.845993               0.      -136.113739
                2                3       204.369049       155.682938               0.      -129.389694
                2                4       184.276947       159.702133               0.      -133.398331
                3                1       180.647873       172.245590               0.      -130.291519
                3                2       182.167160       180.859406               0.      -130.905151
                3                3       195.539871       192.154404               0.      -123.878403
                3                4       198.736862       201.919113               0.      -123.530899
                4                1       168.285706       179.634430               0.      -137.367920
                4                2       183.680756       200.880157               0.      -141.538727
                4                3       164.628662       199.339096               0.      -131.746841
                4                4       178.906662       221.678925               0.      -135.045547
                5                1       152.446198       183.544586               0.      -160.672211
                5                2       186.432831       224.657547               0.      -170.112076
                5                3       135.683945       210.587051               0.      -152.639847
                5                4       169.656662       256.000641               0.      -161.648224
                6                1       98.2503281       252.103348               0.      -121.290848
                6                2       93.8883667       277.649292               0.      -104.272461
                6                3       70.9642792       209.194016               0.      -117.807884
                6                4       67.4322891       234.275406               0.      -101.915321
                7                1       48.1575279       254.443436               0.      -45.5321922
                7                2       52.6801376       265.422485               0.      -28.7529545
                7                3       22.2142925       212.544693               0.      -46.1141205
                7                4       29.2983131       227.304672               0.      -29.6282616
                8                1       134.696014       219.113281               0.      -105.629654
                8                2       131.998978       240.410187               0.      -93.0001450
                8                3       117.136482       187.724319               0.      -104.358208
                8                4       114.905762       208.639526               0.      -92.6026993
                9                1       99.8224564       221.147110               0.      -42.8118210
                9                2       109.050278       238.978180               0.      -23.7765293
                9                3       80.0237045       183.981415               0.      -46.2460861
                9                4       90.4097824       203.919571               0.      -26.0613384
               10                1       166.769089       182.110672               0.      -94.6546021
               10                2       167.150986       209.869186               0.      -77.1566391
               10                3       146.122559       136.103577               0.      -93.7288055
               10                4       146.924927       161.586441               0.      -77.7848053
               11                1       143.522919       187.464294               0.      -32.4365959
               11                2       144.842209       200.057922               0.      -17.9812851
               11                3       136.917099       161.742996               0.      -34.5234718
               11                4       138.458160       174.989578               0.      -18.9171658
               12                1       171.481094       163.353683               0.      -11.3276768
               12                2       169.660126       139.308502               0.      -11.1763620
               12                3       172.869598       156.419754               0.      -21.0652752
               12                4       170.411896       132.619476               0.      -22.4604244
               13                1       193.929733       128.740219               0.      -5.50440216
               13                2       189.994171       104.672897               0.      -4.08924580
               13                3       195.451599       126.502296               0.      -12.0139923
               13                4       191.703506       104.456985               0.      -11.6062946
               14                1       176.094666       159.875397               0.      -56.7602386
               14                2       173.209274       120.806694               0.      -49.1254845
               14                3       205.740402       159.361984               0.      -61.0068092
               14                4       205.432129       125.829727               0.      -54.7498550
               15                1       194.053711       112.953140               0.      -25.5369263
               15                2       195.433975       102.282402               0.      -17.9615879
               15                3       206.915146       117.358414               0.      -26.0831394
               15                4       208.821030       108.308960               0.      -19.5456791
               16                1       216.984772       102.961769               0.      -20.7606411
               16                2       239.481079       114.312782               0.      -16.1822987
               16                3       202.204071       80.5543594               0.      -34.7101288
               16                4       225.078110       92.5119629               0.      -29.6028614
               17                1       253.550613       108.231873               0.      -11.9109840
               17                2       287.886810       125.415489               0.       1.67134416
               17                3       209.870712       23.0581169               0.      -35.0951653
               17                4       250.003357       43.6853065               0.      -18.6935863
               18                1       201.230347       90.7509003               0.      -74.4396362
               18                2       251.394958       118.493614               0.      -75.4264145
               18                3       179.103958       101.410187               0.      -93.4482880
               18                4       226.550003       127.726120               0.      -95.0908279
               19                1       230.693405       42.1804085               0.      -95.2066345
               19                2       268.404175       66.9035950               0.      -99.0061874
               19                3       217.528168       64.9118576               0.      -109.286095
               19                4       254.302673       90.5458374               0.      -113.596626
               20                1       255.979263       169.304352               0.      -161.729919
               20                2       224.760254       186.614288               0.      -170.221619
               20                3       210.379272       135.203659               0.      -152.666275
               20                4       183.826340       152.708344               0.      -160.783661
               21                1       221.864670       178.905426               0.      -134.978180
               21                2       201.219650       183.867752               0.      -141.512405
               21                3       199.410126       164.538681               0.      -131.663940
               21                4       179.500656       168.132675               0.      -137.263031
               22                1       201.695374       198.872665               0.      -123.429512
               22                2       180.555023       181.930786               0.      -130.836975
               22                3       192.125381       195.827972               0.      -123.824127
               22                4       172.215363       180.646225               0.      -130.277618
               23                1       159.655014       184.311386               0.      -133.413483
               23                2       172.861221       201.996628               0.      -136.145493
               23                3       155.444489       204.357803               0.      -129.408630
               23                4       166.203232       221.654480               0.      -131.235992
               24                1       143.181015       182.296661               0.      -153.371918
               24                2       170.969681       215.171799               0.      -160.325317
               24                3       124.758308       207.529114               0.      -146.590927
               24                4       151.197205       243.401276               0.      -152.879333
               25                1       90.5618973       254.332092               0.      -113.578224
               25                2       66.8153534       268.400269               0.      -98.9886475
               25                3       64.9229279       217.528702               0.      -109.264473
               25                4       42.0914268       230.672623               0.      -95.1818237
               26                1       43.7326660       250.022018               0.      -18.6570282
               26                2       125.425972       287.883301               0.       1.69240546
               26                3       23.0764866       209.887512               0.      -35.0670700
               26                4       108.245697       253.564224               0.      -11.8876686
               27                1       127.693886       226.628159               0.      -95.0040283
               27                2       118.407379       251.453094               0.      -75.3651810
               27                3       101.382034       179.145599               0.      -93.3796539
               27                4       90.6812439       201.308792               0.      -74.3754349
               28                1       92.4662094       225.079697               0.      -29.5773239
               28                2       114.310455       239.498169               0.      -16.1621666
               28                3       80.5002518       202.201645               0.      -34.7004433
               28                4       102.960754       217.007507               0.      -20.7515163
               29                1       108.312271       208.844696               0.      -19.5413017
               29                2       102.279816       195.444061               0.      -17.9602661
               29                3       117.340294       206.928574               0.      -26.0760670
               29                4       112.930664       194.049957               0.      -25.5355396
               30                1       104.451057       191.706711               0.      -11.6037664
               30                2       104.653336       189.990799               0.      -4.08953524
               30                3       126.468719       195.450012               0.      -12.0096502
               30                4       128.672073       193.920349               0.      -5.50316238
               31                1       125.756165       205.569931               0.      -54.6681862
               31                2       120.732643       173.351395               0.      -49.0657234
               31                3       159.120270       205.808548               0.      -60.9144249
               31                4       159.645508       176.149551               0.      -56.6934357
               32                1       132.630234       170.579361               0.      -22.3948994
               32                2       139.198380       169.697510               0.      -11.1495533
               32                3       156.340378       173.008820               0.      -21.0480137
               32                4       163.127228       171.494415               0.      -11.3484802
               33                1       174.818375       138.524994               0.      -18.8641720
               33                2       199.891144       144.871948               0.      -17.9858742
               33                3       161.754913       137.240570               0.      -34.4667625
               33                4       187.505081       143.827530               0.      -32.4373856
               34                1       203.687988       90.1964340               0.      -26.0889301
               34                2       239.053665       109.005157               0.      -23.7461586
               34                3       183.942078       79.6676254               0.      -46.1805382
               34                4       221.053146       99.4539337               0.      -42.7810555
               35                1       227.602295       29.4579601               0.      -29.6263676
               35                2       265.332062       52.5898438               0.      -28.7276154
               35                3       212.746811       22.2337837               0.      -45.9983978
               35                4       254.379913       48.0025330               0.      -45.3324738
               36                1       161.286545       147.158875               0.      -77.7027817
               36                2       209.401306       167.284821               0.      -77.0890808
               36                3       135.796463       146.395615               0.      -93.6454697
               36                4       181.791275       167.023651               0.      -94.5904388
               37                1       208.470154       115.121193               0.      -92.4565887
               37                2       240.825943       132.508224               0.      -92.8109589
               37                3       187.377121       116.756241               0.      -104.296494
               37                4       219.177338       134.479645               0.      -105.520096
               38                1       234.525070       66.6865540               0.      -101.790947
               38                2       277.641144       92.9931793               0.      -104.173897
               38                3       209.534637       70.7434616               0.      -117.644157
               38                4       252.315552       98.0008774               0.      -121.148224
               39                1       151.259216       243.391495               0.       152.842163
               39                2       170.948685       215.112198               0.       160.300781
               39                3       124.801414       207.505203               0.       146.549576
               39                4       143.136017       182.192581               0.       153.340134
               40                1       166.395111       221.597229               0.       131.202133
               40                2       172.845993       201.918793               0.       136.113739
               40                3       155.682938       204.369049               0.       129.389694
               40                4       159.702133       184.276947               0.       133.398331
               41                1       172.245590       180.647873               0.       130.291519
               41                2       180.859406       182.167160               0.       130.905151
               41                3       192.154404       195.539871               0.       123.878403
               41                4       201.919113       198.736862               0.       123.530899
               42                1       179.634430       168.285706               0.       137.367920
               42                2       200.880157       183.680756               0.       141.538727
               42                3       199.339096       164.628662               0.       131.746841
               42                4       221.678925       178.906662               0.       135.045547
               43                1       183.544586       152.446198               0.       160.672211
               43                2       224.657547       186.432831               0.       170.112076
               43                3       210.587051       135.683945               0.       152.639847
               43                4       256.000641       169.656662               0.       161.648224
               44                1       252.103348       98.2503281               0.       121.290848
               44                2       277.649292       93.8883667               0.       104.272461
               44                3       209.194016       70.9642792               0.       117.807884
               44                4       234.275406       67.4322891               0.       101.915321
               45                1       254.443436       48.1575279               0.       45.5321922
               45                2       265.422485       52.6801376               0.       28.7529545
               45                3       212.544693       22.2142925               0.       46.1141205
               45                4       227.304672       29.2983131               0.       29.6282616
               46                1       219.113281       134.696014               0.       105.629654
               46                2       240.410187       131.998978               0.       93.0001450
               46                3       187.724319       117.136482               0.       104.358208
               46                4       208.639526       114.905762               0.       92.6026993
               47                1       221.147110       99.8224564               0.       42.8118210
               47                2       238.978180       109.050278               0.       23.7765293
               47                3       183.981415       80.0237045               0.       46.2460861
               47                4       203.919571       90.4097824               0.       26.0613384
               48                1       182.110672       166.769089               0.       94.6546021
               48                2       209.869186       167.150986               0.       77.1566391
               48                3       136.103577       146.122559               0.       93.7288055
               48                4       161.586441       146.924927               0.       77.7848053
               49                1       187.464294       143.522919               0.       32.4365959
               49                2       200.057922       144.842209               0.       17.9812851
               49                3       161.742996       136.917099               0.       34.5234718
               49                4       174.989578       138.458160               0.       18.9171658
               50                1       163.353683       171.481094               0.       11.3276768
               50                2       139.308502       169.660126               0.       11.1763620
               50                3       156.419754       172.869598               0.       21.0652752
               50                4       132.619476       170.411896               0.       22.4604244
               51                1       128.740219       193.929733               0.       5.50440216
               51                2       104.672897       189.994171               0.       4.08924580
               51                3       126.502296       195.451599               0.       12.0139923
               51                4       104.456985       191.703506               0.       11.6062946
               52                1       159.875397       176.094666               0.       56.7602386
               52                2       120.806694       173.209274               0.       49.1254845
               52                3       159.361984       205.740402               0.       61.0068092
               52                4       125.829727       205.432129               0.       54.7498550
               53                1       112.953140       194.053711               0.       25.5369263
               53                2       102.282402       195.433975               0.       17.9615879
               53                3       117.358414       206.915146               0.       26.0831394
               53                4       108.308960       208.821030               0.       19.5456791
               54                1       102.961769       216.984772               0.       20.7606411
               54                2       114.312782       239.481079               0.       16.1822987
               54                3       80.5543594       202.204071               0.       34.7101288
               54                4       92.5119629       225.078110               0.       29.6028614
               55                1       108.231873       253.550613               0.       11.9109840
               55                2       125.415489       287.886810               0.      -1.67134416
               55                3       23.0581169       209.870712               0.       35.0951653
               55                4       43.6853065       250.003357               0.       18.6935863
               56                1       90.7509003       201.230347               0.       74.4396362
               56                2       118.493614       251.394958               0.       75.4264145
               56                3       101.410187       179.103958               0.       93.4482880
               56                4       127.726120       226.550003               0.       95.0908279
               57                1       42.1804085       230.693405               0.       95.2066345
               57                2       66.9035950       268.404175               0.       99.0061874
               57                3       64.9118576       217.528168               0.       109.286095
               57                4       90.5458374       254.302673               0.       113.596626
               58                1       169.304352       255.979263               0.       161.729919
               58                2       186.614288       224.760254               0.       170.221619
               58                3       135.203659       210.379272               0.       152.666275
               58                4       152.708344       183.826340               0.       160.783661
               59                1       178.905426       221.864670               0.       134.978180
               59                2       183.867752       201.219650               0.       141.512405
               59                3       164.538681       199.410126               0.       131.663940
               59                4       168.132675       179.500656               0.       137.263031
               60                1       198.872665       201.695374               0.       123.429512
               60                2       181.930786       180.555023               0.       130.836975
               60                3       195.827972       192.125381               0.       123.824127
               60                4       180.646225       172.215363               0.       130.277618
               61                1       184.311386       159.655014               0.       133.413483
               61                2       201.996628       172.861221               0.       136.145493
               61                3       204.357803       155.444489               0.       129.408630
               61                4       221.654480       166.203232               0.       131.235992
               62                1       182.296661       143.181015               0.       153.371918
               62                2       215.171799       170.969681               0.       160.325317
               62                3       207.529114       124.758308               0.       146.590927
               62                4       243.401276       151.197205               0.       152.879333
               63                1       254.332092       90.5618973               0.       113.578224
               63                2       268.400269       66.8153534               0.       98.9886475
               63                3       217.528702       64.9229279               0.       109.264473
               63                4       230.672623       42.0914268               0.       95.1818237
               64                1       250.022018       43.7326660               0.       18.6570282
               64                2       287.883301       125.425972               0.      -1.69240546
               64                3       209.887512       23.0764866               0.       35.0670700
               64                4       253.564224       108.245697               0.       11.8876686
               65                1       226.628159       127.693886               0.       95.0040283
               65                2       251.453094       118.407379               0.       75.3651810
               65                3       179.145599       101.382034               0.       93.3796539
               65                4       201.308792       90.6812439               0.       74.3754349
               66                1       225.079697       92.4662094               0.       29.5773239
               66                2       239.498169       114.310455               0.       16.1621666
               66                3       202.201645       80.5002518               0.       34.7004433
               66                4       217.007507       102.960754               0.       20.7515163
               67                1       208.844696       108.312271               0.       19.5413017
               67                2       195.444061       102.279816               0.       17.9602661
               67                3       206.928574       117.340294               0.       26.0760670
               67                4       194.049957       112.930664               0.       25.5355396
               68                1       191.706711       104.451057               0.       11.6037664
               68                2       189.990799       104.653336               0.       4.08953524
               68                3       195.450012       126.468719               0.       12.0096502
               68                4       193.920349       128.672073               0.       5.50316238
               69                1       205.569931       125.756165               0.       54.6681862
               69                2       173.351395       120.732643               0.       49.0657234
               69                3       205.808548       159.120270               0.       60.9144249
               69                4       176.149551       159.645508               0.       56.6934357
               70                1       170.579361       132.630234               0.       22.3948994
               70                2       169.697510       139.198380               0.       11.1495533
               70                3       173.008820       156.340378               0.       21.0480137
               70                4       171.494415       163.127228               0.       11.3484802
               71                1       138.524994       174.818375               0.       18.8641720
               71                2       144.871948       199.891144               0.       17.9858742
               71                3       137.240570       161.754913               0.       34.4667625
               71                4       143.827530       187.505081               0.       32.4373856
               72                1       90.1964340       203.687988               0.       26.0889301
               72                2       109.005157       239.053665               0.       23.7461586
               72                3       79.6676254       183.942078               0.       46.1805382
               72                4       99.4539337       221.053146               0.       42.7810555
               73                1       29.4579601       227.602295               0.       29.6263676
               73                2       52.5898438       265.332062               0.       28.7276154
               73                3       22.2337837       212.746811               0.       45.9983978
               73                4       48.0025330       254.379913               0.       45.3324738
               74                1       147.158875       161.286545               0.       77.7027817
               74                2       167.284821       209.401306               0.       77.0890808
               74                3       146.395615       135.796463               0.       93.6454697
               74                4       167.023651       181.791275               0.       94.5904388
               75                1       115.121193       208.470154               0.       92.4565887
               75                2       132.508224       240.825943               0.       92.8109589
               75                3       116.756241       187.377121               0.       104.296494
               75                4       134.479645       219.177338               0.       105.520096
               76                1       66.6865540       234.525070               0.       101.790947
               76                2       92.9931793       277.641144               0.       104.173897
               76                3       70.7434616       209.534637               0.       117.644157
               76                4       98.0008774       252.315552               0.       121.148224
               77                1       255.979263       169.304352               0.      -161.729919
               77                2       224.760254       186.614288               0.      -170.221619
               77                3       210.379272       135.203659               0.      -152.666275
               77                4       183.826340       152.708344               0.      -160.783661
               78                1       221.864670       178.905426               0.      -134.978180
               78                2       201.219650       183.867752               0.      -141.512405
               78                3       199.410126       164.538681               0.      -131.663940
               78                4       179.500656       168.132675               0.      -137.263031
               79                1       201.695374       198.872665               0.      -123.429512
               79                2       180.555023       181.930786               0.      -130.836975
               79                3       192.125381       195.827972               0.      -123.824127
               79                4       172.215363       180.646225               0.      -130.277618
               80                1       159.655014       184.311386               0.      -133.413483
               80                2       172.861221       201.996628               0.      -136.145493
               80                3       155.444489       204.357803               0.      -129.408630
               80                4       166.203232       221.654480               0.      -131.235992
               81                1       143.181015       182.296661               0.      -153.371918
               81                2       170.969681       215.171799               0.      -160.325317
               81                3       124.758308       207.529114               0.      -146.590927
               81                4       151.197205       243.401276               0.      -152.879333
               82                1       90.5618973       254.332092               0.      -113.578224
               82                2       66.8153534       268.400269               0.      -98.9886475
               82                3       64.9229279       217.528702               0.      -109.264473
               82                4       42.0914268       230.672623               0.      -95.1818237
               83                1       43.7326660       250.022018               0.      -18.6570282
               83                2       125.425972       287.883301               0.       1.69240546
               83                3       23.0764866       209.887512               0.      -35.0670700
               83                4       108.245697       253.564224               0.      -11.8876686
               84                1       127.693886       226.628159               0.      -95.0040283
               84                2       118.407379       251.453094               0.      -75.3651810
               84                3       101.382034       179.145599               0.      -93.3796539
               84                4       90.6812439       201.308792               0.      -74.3754349
               85                1       92.4662094       225.079697               0.      -29.5773239
               85                2       114.310455       239.498169               0.      -16.1621666
               85                3       80.5002518       202.201645               0.      -34.7004433
               85                4       102.960754       217.007507               0.      -20.7515163
               86                1       108.312271       208.844696               0.      -19.5413017
               86                2       102.279816       195.444061               0.      -17.9602661
               86                3       117.340294       206.928574               0.      -26.0760670
               86                4       112.930664       194.049957               0.      -25.5355396
               87                1       104.451057       191.706711               0.      -11.6037664
               87                2       104.653336       189.990799               0.      -4.08953524
               87                3       126.468719       195.450012               0.      -12.0096502
               87                4       128.672073       193.920349               0.      -5.50316238
               88                1       125.756165       205.569931               0.      -54.6681862
               88                2       120.732643       173.351395               0.      -49.0657234
               88                3       159.120270       205.808548               0.      -60.9144249
               88                4       159.645508       176.149551               0.      -56.6934357
               89                1       132.630234       170.579361               0.      -22.3948994
               89                2       139.198380       169.697510               0.      -11.1495533
               89                3       156.340378       173.008820               0.      -21.0480137
               89                4       163.127228       171.494415               0.      -11.3484802
               90                1       174.818375       138.524994               0.      -18.8641720
               90                2       199.891144       144.871948               0.      -17.9858742
               90                3       161.754913       137.240570               0.      -34.4667625
               90                4       187.505081       143.827530               0.      -32.4373856
               91                1       203.687988       90.1964340               0.      -26.0889301
               91                2       239.053665       109.005157               0.      -23.7461586
               91                3       183.942078       79.6676254               0.      -46.1805382
               91                4       221.053146       99.4539337               0.      -42.7810555
               92                1       227.602295       29.4579601               0.      -29.6263676
               92                2       265.332062       52.5898438               0.      -28.7276154
               92                3       212.746811       22.2337837               0.      -45.9983978
               92                4       254.379913       48.0025330               0.      -45.3324738
               93                1       161.286545       147.158875               0.      -77.7027817
               93                2       209.401306       167.284821               0.      -77.0890808
               93                3       135.796463       146.395615               0.      -93.6454697
               93                4       181.791275       167.023651               0.      -94.5904388
               94                1       208.470154       115.121193               0.      -92.4565887
               94                2       240.825943       132.508224               0.      -92.8109589
               94                3       187.377121       116.756241               0.      -104.296494
               94                4       219.177338       134.479645               0.      -105.520096
               95                1       234.525070       66.6865540               0.      -101.790947
               95                2       277.641144       92.9931793               0.      -104.173897
               95                3       209.534637       70.7434616               0.      -117.644157
               95                4       252.315552       98.0008774               0.      -121.148224
               96                1       169.304352       255.979263               0.       161.729919
               96                2       186.614288       224.760254               0.       170.221619
               96                3       135.203659       210.379272               0.       152.666275
               96                4       152.708344       183.826340               0.       160.783661
               97                1       178.905426       221.864670               0.       134.978180
               97                2       183.867752       201.219650               0.       141.512405
               97                3       164.538681       199.410126               0.       131.663940
               97                4       168.132675       179.500656               0.       137.263031
               98                1       198.872665       201.695374               0.       123.429512
               98                2       181.930786       180.555023               0.       130.836975
               98                3       195.827972       192.125381               0.       123.824127
               98                4       180.646225       172.215363               0.       130.277618
               99                1       184.311386       159.655014               0.       133.413483
               99                2       201.996628       172.861221               0.       136.145493
               99                3       204.357803       155.444489               0.       129.408630
               99                4       221.654480       166.203232               0.       131.235992
              100                1       182.296661       143.181015               0.       153.371918
              100                2       215.171799       170.969681               0.       160.325317
              100                3       207.529114       124.758308               0.       146.590927
              100                4       243.401276       151.197205               0.       152.879333
              101                1       254.332092       90.5618973               0.       113.578224
              101                2       268.400269       66.8153534               0.       98.9886475
              101                3       217.528702       64.9229279               0.       109.264473
              101                4       230.672623       42.0914268               0.       95.1818237
              102                1       250.022018       43.7326660               0.       18.6570282
              102                2       287.883301       125.425972               0.      -1.69240546
              102                3       209.887512       23.0764866               0.       35.0670700
              102                4       253.564224       108.245697               0.       11.8876686
              103                1       226.628159       127.693886               0.       95.0040283
              103                2       251.453094       118.407379               0.       75.3651810
              103                3       179.145599       101.382034               0.       93.3796539
              103                4       201.308792       90.6812439               0.       74.3754349
              104                1       225.079697       92.4662094               0.       29.5773239
              104                2       239.498169       114.310455               0.       16.1621666
              104                3       202.201645       80.5002518               0.       34.7004433
              104                4       217.007507       102.960754               0.       20.7515163
              105                1       208.844696       108.312271               0.       19.5413017
              105                2       195.444061       102.279816               0.       17.9602661
              105                3       206.928574       117.340294               0.       26.0760670
              105                4       194.049957       112.930664               0.       25.5355396
              106                1       191.706711       104.451057               0.       11.6037664
              106                2       189.990799       104.653336               0.       4.08953524
              106                3       195.450012       126.468719               0.       12.0096502
              106                4       193.920349       128.672073               0.       5.50316238
              107                1       205.569931       125.756165               0.       54.6681862
              107                2       173.351395       120.732643               0.       49.0657234
              107                3       205.808548       159.120270               0.       60.9144249
              107                4       176.149551       159.645508               0.       56.6934357
              108                1       170.579361       132.630234               0.       22.3948994
              108                2       169.697510       139.198380               0.       11.1495533
              108                3       173.008820       156.340378               0.       21.0480137
              108                4       171.494415       163.127228               0.       11.3484802
              109                1       138.524994       174.818375               0.       18.8641720
              109                2       144.871948       199.891144               0.       17.9858742
              109                3       137.240570       161.754913               0.       34.4667625
              109                4       143.827530       187.505081               0.       32.4373856
              110                1       90.1964340       203.687988               0.       26.0889301
              110                2       109.005157       239.053665               0.       23.7461586
              110                3       79.6676254       183.942078               0.       46.1805382
              110                4       99.4539337       221.053146               0.       42.7810555
              111                1       29.4579601       227.602295               0.       29.6263676
              111                2       52.5898438       265.332062               0.       28.7276154
              111                3       22.2337837       212.746811               0.       45.9983978
              111                4       48.0025330       254.379913               0.       45.3324738
              112                1       147.158875       161.286545               0.       77.7027817
              112                2       167.284821       209.401306               0.       77.0890808
              112                3       146.395615       135.796463               0.       93.6454697
              112                4       167.023651       181.791275               0.       94.5904388
              113                1       115.121193       208.470154               0.       92.4565887
              113                2       132.508224       240.825943               0.       92.8109589
              113                3       116.756241       187.377121               0.       104.296494
              113                4       134.479645       219.177338               0.       105.520096
              114                1       66.6865540       234.525070               0.       101.790947
              114                2       92.9931793       277.641144               0.       104.173897
              114                3       70.7434616       209.534637               0.       117.644157
              114                4       98.0008774       252.315552               0.       121.148224
              115                1       151.259216       243.391495               0.       152.842163
              115                2       170.948685       215.112198               0.       160.300781
              115                3       124.801414       207.505203               0.       146.549576
              115                4       143.136017       182.192581               0.       153.340134
              116                1       166.395111       221.597229               0.       131.202133
              116                2       172.845993       201.918793               0.       136.113739
              116                3       155.682938       204.369049               0.       129.389694
              116                4       159.702133       184.276947               0.       133.398331
              117                1       172.245590       180.647873               0.       130.291519
              117                2       180.859406       182.167160               0.       130.905151
              117                3       192.154404       195.539871               0.       123.878403
              117                4       201.919113       198.736862               0.       123.530899
              118                1       179.634430       168.285706               0.       137.367920
              118                2       200.880157       183.680756               0.       141.538727
              118                3       199.339096       164.628662               0.       131.746841
              118                4       221.678925       178.906662               0.       135.045547
              119                1       183.544586       152.446198               0.       160.672211
              119                2       224.657547       186.432831               0.       170.112076
              119                3       210.587051       135.683945               0.       152.639847
              119                4       256.000641       169.656662               0.       161.648224
              120                1       252.103348       98.2503281               0.       121.290848
              120                2       277.649292       93.8883667               0.       104.272461
              120                3       209.194016       70.9642792               0.       117.807884
              120                4       234.275406       67.4322891               0.       101.915321
              121                1       254.443436       48.1575279               0.       45.5321922
              121                2       265.422485       52.6801376               0.       28.7529545
              121                3       212.544693       22.2142925               0.       46.1141205
              121                4       227.304672       29.2983131               0.       29.6282616
              122                1       219.113281       134.696014               0.       105.629654
              122                2       240.410187       131.998978               0.       93.0001450
              122                3       187.724319       117.136482               0.       104.358208
              122                4       208.639526       114.905762               0.       92.6026993
              123                1       221.147110       99.8224564               0.       42.8118210
              123                2       238.978180       109.050278               0.       23.7765293
              123                3       183.981415       80.0237045               0.       46.2460861
              123                4       203.919571       90.4097824               0.       26.0613384
              124                1       182.110672       166.769089               0.       94.6546021
              124                2       209.869186       167.150986               0.       77.1566391
              124                3       136.103577       146.122559               0.       93.7288055
              124                4       161.586441       146.924927               0.       77.7848053
              125                1       187.464294       143.522919               0.       32.4365959
              125                2       200.057922       144.842209               0.       17.9812851
              125                3       161.742996       136.917099               0.       34.5234718
              125                4       174.989578       138.458160               0.       18.9171658
              126                1       163.353683       171.481094               0.       11.3276768
              126                2       139.308502       169.660126               0.       11.1763620
              126                3       156.419754       172.869598               0.       21.0652752
              126                4       132.619476       170.411896               0.       22.4604244
              127                1       128.740219       193.929733               0.       5.50440216
              127                2       104.672897       189.994171               0.       4.08924580
              127                3       126.502296       195.451599               0.       12.0139923
              127                4       104.456985       191.703506               0.       11.6062946
              128                1       159.875397       176.094666               0.       56.7602386
              128                2       120.806694       173.209274               0.       49.1254845
              128                3       159.361984       205.740402               0.       61.0068092
              128                4       125.829727       205.432129               0.       54.7498550
              129                1       112.953140       194.053711               0.       25.5369263
              129                2       102.282402       195.433975               0.       17.9615879
              129                3       117.358414       206.915146               0.       26.0831394
              129                4       108.308960       208.821030               0.       19.5456791
              130                1       102.961769       216.984772               0.       20.7606411
              130                2       114.312782       239.481079               0.       16.1822987
              130                3       80.5543594       202.204071               0.       34.7101288
              130                4       92.5119629       225.078110               0.       29.6028614
              131                1       108.231873       253.550613               0.       11.9109840
              131                2       125.415489       287.886810               0.      -1.67134416
              131                3       23.0581169       209.870712               0.       35.0951653
              131                4       43.6853065       250.003357               0.       18.6935863
              132                1       90.7509003       201.230347               0.       74.4396362
              132                2       118.493614       251.394958               0.       75.4264145
              132                3       101.410187       179.103958               0.       93.4482880
              132                4       127.726120       226.550003               0.       95.0908279
              133                1       42.1804085       230.693405               0.       95.2066345
              133                2       66.9035950       268.404175               0.       99.0061874
              133                3       64.9118576       217.528168               0.       109.286095
              133                4       90.5458374       254.302673               0.       113.596626
              134                1       243.391495       151.259216               0.      -152.842163
              134                2       215.112198       170.948685               0.      -160.300781
              134                3       207.505203       124.801414               0.      -146.549576
              134                4       182.192581       143.136017               0.      -153.340134
              135                1       221.597229       166.395111               0.      -131.202133
              135                2       201.918793       172.845993               0.      -136.113739
              135                3       204.369049       155.682938               0.      -129.389694
              135                4       184.276947       159.702133               0.      -133.398331
              136                1       180.647873       172.245590               0.      -130.291519
              136                2       182.167160       180.859406               0.      -130.905151
              136                3       195.539871       192.154404               0.      -123.878403
              136                4       198.736862       201.919113               0.      -123.530899
              137                1       168.285706       179.634430               0.      -137.367920
              137                2       183.680756       200.880157               0.      -141.538727
              137                3       164.628662       199.339096               0.      -131.746841
              137                4       178.906662       221.678925               0.      -135.045547
              138                1       152.446198       183.544586               0.      -160.672211
              138                2       186.432831       224.657547               0.      -170.112076
              138                3       135.683945       210.587051               0.      -152.639847
              138                4       169.656662       256.000641               0.      -161.648224
              139                1       98.2503281       252.103348               0.      -121.290848
              139                2       93.8883667       277.649292               0.      -104.272461
              139                3       70.9642792       209.194016               0.      -117.807884
              139                4       67.4322891       234.275406               0.      -101.915321
              140                1       48.1575279       254.443436               0.      -45.5321922
              140                2       52.6801376       265.422485               0.      -28.7529545
              140                3       22.2142925       212.544693               0.      -46.1141205
              140                4       29.2983131       227.304672               0.      -29.6282616
              141                1       134.696014       219.113281               0.      -105.629654
              141                2       131.998978       240.410187               0.      -93.0001450
              141                3       117.136482       187.724319               0.      -104.358208
              141                4       114.905762       208.639526               0.      -92.6026993
              142                1       99.8224564       221.147110               0.      -42.8118210
              142                2       109.050278       238.978180               0.      -23.7765293
              142                3       80.0237045       183.981415               0.      -46.2460861
              142                4       90.4097824       203.919571               0.      -26.0613384
              143                1       166.769089       182.110672               0.      -94.6546021
              143                2       167.150986       209.869186               0.      -77.1566391
              143                3       146.122559       136.103577               0.      -93.7288055
              143                4       146.924927       161.586441               0.      -77.7848053
              144                1       143.522919       187.464294               0.      -32.4365959
              144                2       144.842209       200.057922               0.      -17.9812851
              144                3       136.917099       161.742996               0.      -34.5234718
              144                4       138.458160       174.989578               0.      -18.9171658
              145                1       171.481094       163.353683               0.      -11.3276768
              145                2       169.660126       139.308502               0.      -11.1763620
              145                3       172.869598       156.419754               0.      -21.0652752
              145                4       170.411896       132.619476               0.      -22.4604244
              146                1       193.929733       128.740219               0.      -5.50440216
              146                2       189.994171       104.672897               0.      -4.08924580
              146                3       195.451599       126.502296               0.      -12.0139923
              146                4       191.703506       104.456985               0.      -11.6062946
              147                1       176.094666       159.875397               0.      -56.7602386
              147                2       173.209274       120.806694               0.      -49.1254845
              147                3       205.740402       159.361984               0.      -61.0068092
              147                4       205.432129       125.829727               0.      -54.7498550
              148                1       194.053711       112.953140               0.      -25.5369263
              148                2       195.433975       102.282402               0.      -17.9615879
              148                3       206.915146       117.358414               0.      -26.0831394
              148                4       208.821030       108.308960               0.      -19.5456791
              149                1       216.984772       102.961769               0.      -20.7606411
              149                2       239.481079       114.312782               0.      -16.1822987
              149                3       202.204071       80.5543594               0.      -34.7101288
              149                4       225.078110       92.5119629               0.      -29.6028614
              150                1       253.550613       108.231873               0.      -11.9109840
              150                2       287.886810       125.415489               0.       1.67134416
              150                3       209.870712       23.0581169               0.      -35.0951653
              150                4       250.003357       43.6853065               0.      -18.6935863
              151                1       201.230347       90.7509003               0.      -74.4396362
              151                2       251.394958       118.493614               0.      -75.4264145
              151                3       179.103958       101.410187               0.      -93.4482880
              151                4       226.550003       127.726120               0.      -95.0908279
              152                1       230.693405       42.1804085               0.      -95.2066345
              152                2       268.404175       66.9035950               0.      -99.0061874
              152                3       217.528168       64.9118576               0.      -109.286095
              152                4       254.302673       90.5458374               0.      -113.596626


********************************************************************************
Field Output Report, written Mon May 12 10:42:55 2025

Source 1
---------

   ODB: C:/lnms/Vid/CrossHoleSym2/CrossHoleSym2brezU.odb
   Step: loading
   Frame: Increment      6: Step Time =   0.6000

Loc 1 : Integration point values from source 1

Output sorted by column "Element Label".

Field Output reported at integration points for part: SPECIMEN-1

          Element              Int            S.S11            S.S22            S.S33            S.S12
            Label               Pt           @Loc 1           @Loc 1           @Loc 1           @Loc 1
-------------------------------------------------------------------------------------------------------
                1                1       271.905121       169.398895               0.      -172.188004
                1                2       239.615448       190.200363               0.      -180.785751
                1                3       231.970901       140.575699               0.      -164.312622
                1                4       203.201309       159.820816               0.      -172.114227
                2                1       246.675308       184.267120               0.      -147.419708
                2                2       223.981308       191.127991               0.      -153.162842
                2                3       226.953552       172.042191               0.      -145.003601
                2                4       203.854111       176.167374               0.      -149.638641
                3                1       199.076675       189.962646               0.      -146.292862
                3                2       201.129074       199.799255               0.      -146.970230
                3                3           215.75       213.107010               0.      -139.106735
                3                4       219.577057       224.245712               0.      -138.713486
                4                1       185.574326       198.084534               0.      -154.331223
                4                2       202.988892       222.161362               0.      -159.386948
                4                3       182.033691       221.202499               0.      -147.711044
                4                4       198.222946       246.603928               0.      -151.729034
                5                1       170.181625       204.108688               0.      -180.334229
                5                2       207.374405       249.466766               0.      -191.808594
                5                3       152.610580       235.119278               0.      -171.073624
                5                4       189.717346       285.473175               0.      -182.043182
                6                1       107.521873       279.266144               0.      -136.567978
                6                2       104.768158       309.092926               0.      -117.090012
                6                3       77.8141251       230.857422               0.      -131.895950
                6                4       75.9481964       260.063721               0.      -113.863152
                7                1       51.9761391       281.367981               0.      -51.3070946
                7                2       57.7438965       294.297058               0.      -31.9588757
                7                3       22.8599205       233.124863               0.      -51.8315582
                7                4       31.5235939       250.566345               0.      -32.8755531
                8                1       147.244614       241.647003               0.      -118.233772
                8                2       144.836685       266.416351               0.      -103.525909
                8                3       126.997749       205.331772               0.      -116.377602
                8                4       125.145874       229.695282               0.      -102.720581
                9                1       108.325584       242.709290               0.      -47.8126907
                9                2       119.259018       263.319275               0.       -26.421875
                9                3       85.3357010       199.359756               0.      -51.3382416
                9                4       97.6191406       222.425812               0.      -28.7969952
               10                1       182.665939       199.038315               0.      -105.629128
               10                2       182.671249       231.679581               0.      -85.5999985
               10                3       158.213211       145.360779               0.      -104.304924
               10                4       158.851044       175.655182               0.      -86.1063385
               11                1       156.337799       204.743301               0.      -35.6446724
               11                2       158.078323       218.884155               0.      -19.7905045
               11                3       147.601379       174.876709               0.      -37.6660233
               11                4       149.476486       189.514481               0.      -20.6527157
               12                1       186.625397       177.861404               0.      -12.3618193
               12                2       183.204697       150.330276               0.      -12.0564737
               12                3       188.244980       170.235062               0.      -22.9682064
               12                4       184.308533       143.143539               0.      -24.3142262
               13                1       210.584564       139.868210               0.      -5.91910553
               13                2       205.381912       113.195251               0.      -4.38805866
               13                3       212.568176       137.663055               0.      -12.9502192
               13                4       207.691818       113.212555               0.      -12.4889917
               14                1       191.638184       174.737000               0.      -62.8130150
               14                2       187.799377       130.280716               0.      -53.8942642
               14                3       225.957230       174.664871               0.      -67.6000290
               14                4       225.154953       136.529510               0.      -60.2438545
               15                1       211.044037       122.304329               0.      -27.9174919
               15                2       212.317520       110.952988               0.      -19.4417744
               15                3       226.349762       127.873047               0.      -28.4798794
               15                4       228.317963       118.268112               0.      -21.1311264
               16                1       237.828354       112.525673               0.      -22.4743042
               16                2       263.810394       125.619400               0.      -17.4143219
               16                3       220.583435       86.4794922               0.      -38.0784988
               16                4       247.013901       100.237122               0.      -32.4589577
               17                1       279.859192       119.309090               0.      -12.7741203
               17                2       318.971649       138.854355               0.       1.97559822
               17                3       229.616653       23.4658203               0.      -38.7075424
               17                4       275.348755       46.8419533               0.      -20.8637638
               18                1       220.234848       98.2918854               0.      -82.4327393
               18                2       278.346954       130.161835               0.      -83.8444595
               18                3       194.048981       109.543137               0.      -104.458771
               18                4       249.229507       139.908478               0.      -106.709412
               19                1       256.397858       46.9527359               0.      -105.920067
               19                2       299.734161       74.3805466               0.      -110.386864
               19                3       239.978439       71.0497589               0.      -122.467209
               19                4       282.393982       99.5655975               0.      -127.677979
               20                1       285.444672       189.314468               0.      -182.133835
               20                2       249.576431       207.561920               0.      -191.934006
               20                3       234.889999       152.076996               0.      -171.104218
               20                4       204.419708       170.462555               0.      -180.470001
               21                1       246.818726       198.233688               0.      -151.654907
               21                2       222.547409       203.216873               0.      -159.363052
               21                3       221.281418       181.939957               0.      -147.615692
               21                4       197.927551       185.412048               0.      -154.209290
               22                1       223.986420       219.725220               0.      -138.599136
               22                2       199.450195       200.852493               0.      -146.890045
               22                3       213.071640       216.072083               0.      -139.049103
               22                4       189.927750       199.068558               0.      -146.278671
               23                1       176.115082       203.887405               0.      -149.657486
               23                2       191.148087       224.067703               0.      -153.200256
               23                3       171.767319       226.940063               0.      -145.024292
               23                4       184.045532       246.743118               0.      -147.457336
               24                1       159.873276       203.319397               0.      -172.151932
               24                2       190.228653       239.686447               0.      -180.814194
               24                3       140.524048       231.999237               0.      -164.360779
               24                4       169.327881       271.919434               0.      -172.231003
               25                1       99.5896683       282.427856               0.      -127.657204
               25                2       74.2798233       299.729401               0.      -110.366516
               25                3       71.0662003       239.977463               0.      -122.443733
               25                4       46.8496017       256.372864               0.      -105.892334
               26                1       46.8986740       275.371124               0.      -20.8232689
               26                2       138.866577       318.967590               0.       1.99884772
               26                3       23.4893494       229.636581               0.      -38.6763420
               26                4       119.325127       279.874603               0.      -12.7481861
               27                1       139.883759       249.318542               0.      -106.611191
               27                2       130.067062       278.412170               0.      -83.7753906
               27                3       109.521408       194.092407               0.      -104.383041
               27                4       98.2156448       220.322891               0.      -82.3621445
               28                1       100.185043       247.014420               0.      -32.4305191
               28                2       125.616776       263.829437               0.      -17.3918591
               28                3       86.4178162       220.579239               0.      -38.0679169
               28                4       112.524597       237.853958               0.      -22.4642239
               29                1       118.272507       228.344849               0.      -21.1261539
               29                2       110.950592       212.328903               0.      -19.4400196
               29                3       127.853699       226.364044               0.      -28.4716225
               29                4       122.279579       211.038605               0.      -27.9154053
               30                1       113.205612       207.695023               0.      -12.4861279
               30                2       113.173180       205.377411               0.      -4.38853025
               30                3       137.624329       212.564682               0.      -12.9454546
               30                4       139.791000       210.571121               0.      -5.91796398
               31                1       136.451492       225.309952               0.      -60.1520119
               31                2       130.203262       187.960312               0.       -53.828125
               31                3       174.393768       226.029892               0.      -67.4950790
               31                4       174.479294       191.695114               0.      -62.7379112
               32                1       143.165207       184.499466               0.      -24.2427578
               32                2       150.208496       183.241486               0.      -12.0258713
               32                3       170.152557       188.399658               0.      -22.9480534
               32                4       177.602982       186.628052               0.      -12.3819847
               33                1       189.315079       149.539139               0.      -20.5916977
               33                2       218.693436       158.105515               0.      -19.7926750
               33                3       174.900040       147.964172               0.      -37.6038132
               33                4       204.803665       156.685593               0.      -35.6455078
               34                1       222.153595       97.3690872               0.      -28.8230133
               34                2       263.403290       119.201790               0.      -26.3843193
               34                3       199.313065       84.9207840               0.      -51.2571640
               34                4       242.595779       107.890465               0.      -47.7713051
               35                1       250.905167       31.6989346               0.      -32.8760910
               35                2       294.198944       57.6570396               0.      -31.9337254
               35                3       233.357086       22.9061317               0.      -51.7154884
               35                4       281.308533       51.8505554               0.      -51.0930634
               36                1       175.320541       159.103592               0.      -86.0157852
               36                2       231.153107       182.805969               0.      -85.5227356
               36                3       145.012665       158.513184               0.      -104.210869
               36                4       198.679779       182.945709               0.      -105.555443
               37                1       229.489288       125.393646               0.      -102.556122
               37                2       266.885254       145.425293               0.      -103.325241
               37                3       204.926346       126.551636               0.      -116.304237
               37                4       241.713043       146.988586               0.      -118.116966
               38                1       260.349579       75.1077957               0.      -113.737984
               38                2       309.079163       103.762215               0.      -116.985069
               38                3       231.258682       77.5931473               0.      -131.714569
               38                4       279.518036       107.272453               0.      -136.403076
               39                1       169.398895       271.905121               0.       172.188004
               39                2       190.200363       239.615448               0.       180.785751
               39                3       140.575699       231.970901               0.       164.312622
               39                4       159.820816       203.201309               0.       172.114227
               40                1       184.267120       246.675308               0.       147.419708
               40                2       191.127991       223.981308               0.       153.162842
               40                3       172.042191       226.953552               0.       145.003601
               40                4       176.167374       203.854111               0.       149.638641
               41                1       189.962646       199.076675               0.       146.292862
               41                2       199.799255       201.129074               0.       146.970230
               41                3       213.107010           215.75               0.       139.106735
               41                4       224.245712       219.577057               0.       138.713486
               42                1       198.084534       185.574326               0.       154.331223
               42                2       222.161362       202.988892               0.       159.386948
               42                3       221.202499       182.033691               0.       147.711044
               42                4       246.603928       198.222946               0.       151.729034
               43                1       204.108688       170.181625               0.       180.334229
               43                2       249.466766       207.374405               0.       191.808594
               43                3       235.119278       152.610580               0.       171.073624
               43                4       285.473175       189.717346               0.       182.043182
               44                1       279.266144       107.521873               0.       136.567978
               44                2       309.092926       104.768158               0.       117.090012
               44                3       230.857422       77.8141251               0.       131.895950
               44                4       260.063721       75.9481964               0.       113.863152
               45                1       281.367981       51.9761391               0.       51.3070946
               45                2       294.297058       57.7438965               0.       31.9588757
               45                3       233.124863       22.8599205               0.       51.8315582
               45                4       250.566345       31.5235939               0.       32.8755531
               46                1       241.647003       147.244614               0.       118.233772
               46                2       266.416351       144.836685               0.       103.525909
               46                3       205.331772       126.997749               0.       116.377602
               46                4       229.695282       125.145874               0.       102.720581
               47                1       242.709290       108.325584               0.       47.8126907
               47                2       263.319275       119.259018               0.        26.421875
               47                3       199.359756       85.3357010               0.       51.3382416
               47                4       222.425812       97.6191406               0.       28.7969952
               48                1       199.038315       182.665939               0.       105.629128
               48                2       231.679581       182.671249               0.       85.5999985
               48                3       145.360779       158.213211               0.       104.304924
               48                4       175.655182       158.851044               0.       86.1063385
               49                1       204.743301       156.337799               0.       35.6446724
               49                2       218.884155       158.078323               0.       19.7905045
               49                3       174.876709       147.601379               0.       37.6660233
               49                4       189.514481       149.476486               0.       20.6527157
               50                1       177.861404       186.625397               0.       12.3618193
               50                2       150.330276       183.204697               0.       12.0564737
               50                3       170.235062       188.244980               0.       22.9682064
               50                4       143.143539       184.308533               0.       24.3142262
               51                1       139.868210       210.584564               0.       5.91910553
               51                2       113.195251       205.381912               0.       4.38805866
               51                3       137.663055       212.568176               0.       12.9502192
               51                4       113.212555       207.691818               0.       12.4889917
               52                1       174.737000       191.638184               0.       62.8130150
               52                2       130.280716       187.799377               0.       53.8942642
               52                3       174.664871       225.957230               0.       67.6000290
               52                4       136.529510       225.154953               0.       60.2438545
               53                1       122.304329       211.044037               0.       27.9174919
               53                2       110.952988       212.317520               0.       19.4417744
               53                3       127.873047       226.349762               0.       28.4798794
               53                4       118.268112       228.317963               0.       21.1311264
               54                1       112.525673       237.828354               0.       22.4743042
               54                2       125.619400       263.810394               0.       17.4143219
               54                3       86.4794922       220.583435               0.       38.0784988
               54                4       100.237122       247.013901               0.       32.4589577
               55                1       119.309090       279.859192               0.       12.7741203
               55                2       138.854355       318.971649               0.      -1.97559822
               55                3       23.4658203       229.616653               0.       38.7075424
               55                4       46.8419533       275.348755               0.       20.8637638
               56                1       98.2918854       220.234848               0.       82.4327393
               56                2       130.161835       278.346954               0.       83.8444595
               56                3       109.543137       194.048981               0.       104.458771
               56                4       139.908478       249.229507               0.       106.709412
               57                1       46.9527359       256.397858               0.       105.920067
               57                2       74.3805466       299.734161               0.       110.386864
               57                3       71.0497589       239.978439               0.       122.467209
               57                4       99.5655975       282.393982               0.       127.677979
               58                1       189.314468       285.444672               0.       182.133835
               58                2       207.561920       249.576431               0.       191.934006
               58                3       152.076996       234.889999               0.       171.104218
               58                4       170.462555       204.419708               0.       180.470001
               59                1       198.233688       246.818726               0.       151.654907
               59                2       203.216873       222.547409               0.       159.363052
               59                3       181.939957       221.281418               0.       147.615692
               59                4       185.412048       197.927551               0.       154.209290
               60                1       219.725220       223.986420               0.       138.599136
               60                2       200.852493       199.450195               0.       146.890045
               60                3       216.072083       213.071640               0.       139.049103
               60                4       199.068558       189.927750               0.       146.278671
               61                1       203.887405       176.115082               0.       149.657486
               61                2       224.067703       191.148087               0.       153.200256
               61                3       226.940063       171.767319               0.       145.024292
               61                4       246.743118       184.045532               0.       147.457336
               62                1       203.319397       159.873276               0.       172.151932
               62                2       239.686447       190.228653               0.       180.814194
               62                3       231.999237       140.524048               0.       164.360779
               62                4       271.919434       169.327881               0.       172.231003
               63                1       282.427856       99.5896683               0.       127.657204
               63                2       299.729401       74.2798233               0.       110.366516
               63                3       239.977463       71.0662003               0.       122.443733
               63                4       256.372864       46.8496017               0.       105.892334
               64                1       275.371124       46.8986740               0.       20.8232689
               64                2       318.967590       138.866577               0.      -1.99884772
               64                3       229.636581       23.4893494               0.       38.6763420
               64                4       279.874603       119.325127               0.       12.7481861
               65                1       249.318542       139.883759               0.       106.611191
               65                2       278.412170       130.067062               0.       83.7753906
               65                3       194.092407       109.521408               0.       104.383041
               65                4       220.322891       98.2156448               0.       82.3621445
               66                1       247.014420       100.185043               0.       32.4305191
               66                2       263.829437       125.616776               0.       17.3918591
               66                3       220.579239       86.4178162               0.       38.0679169
               66                4       237.853958       112.524597               0.       22.4642239
               67                1       228.344849       118.272507               0.       21.1261539
               67                2       212.328903       110.950592               0.       19.4400196
               67                3       226.364044       127.853699               0.       28.4716225
               67                4       211.038605       122.279579               0.       27.9154053
               68                1       207.695023       113.205612               0.       12.4861279
               68                2       205.377411       113.173180               0.       4.38853025
               68                3       212.564682       137.624329               0.       12.9454546
               68                4       210.571121       139.791000               0.       5.91796398
               69                1       225.309952       136.451492               0.       60.1520119
               69                2       187.960312       130.203262               0.        53.828125
               69                3       226.029892       174.393768               0.       67.4950790
               69                4       191.695114       174.479294               0.       62.7379112
               70                1       184.499466       143.165207               0.       24.2427578
               70                2       183.241486       150.208496               0.       12.0258713
               70                3       188.399658       170.152557               0.       22.9480534
               70                4       186.628052       177.602982               0.       12.3819847
               71                1       149.539139       189.315079               0.       20.5916977
               71                2       158.105515       218.693436               0.       19.7926750
               71                3       147.964172       174.900040               0.       37.6038132
               71                4       156.685593       204.803665               0.       35.6455078
               72                1       97.3690872       222.153595               0.       28.8230133
               72                2       119.201790       263.403290               0.       26.3843193
               72                3       84.9207840       199.313065               0.       51.2571640
               72                4       107.890465       242.595779               0.       47.7713051
               73                1       31.6989346       250.905167               0.       32.8760910
               73                2       57.6570396       294.198944               0.       31.9337254
               73                3       22.9061317       233.357086               0.       51.7154884
               73                4       51.8505554       281.308533               0.       51.0930634
               74                1       159.103592       175.320541               0.       86.0157852
               74                2       182.805969       231.153107               0.       85.5227356
               74                3       158.513184       145.012665               0.       104.210869
               74                4       182.945709       198.679779               0.       105.555443
               75                1       125.393646       229.489288               0.       102.556122
               75                2       145.425293       266.885254               0.       103.325241
               75                3       126.551636       204.926346               0.       116.304237
               75                4       146.988586       241.713043               0.       118.116966
               76                1       75.1077957       260.349579               0.       113.737984
               76                2       103.762215       309.079163               0.       116.985069
               76                3       77.5931473       231.258682               0.       131.714569
               76                4       107.272453       279.518036               0.       136.403076
               77                1       285.444672       189.314468               0.      -182.133835
               77                2       249.576431       207.561920               0.      -191.934006
               77                3       234.889999       152.076996               0.      -171.104218
               77                4       204.419708       170.462555               0.      -180.470001
               78                1       246.818726       198.233688               0.      -151.654907
               78                2       222.547409       203.216873               0.      -159.363052
               78                3       221.281418       181.939957               0.      -147.615692
               78                4       197.927551       185.412048               0.      -154.209290
               79                1       223.986420       219.725220               0.      -138.599136
               79                2       199.450195       200.852493               0.      -146.890045
               79                3       213.071640       216.072083               0.      -139.049103
               79                4       189.927750       199.068558               0.      -146.278671
               80                1       176.115082       203.887405               0.      -149.657486
               80                2       191.148087       224.067703               0.      -153.200256
               80                3       171.767319       226.940063               0.      -145.024292
               80                4       184.045532       246.743118               0.      -147.457336
               81                1       159.873276       203.319397               0.      -172.151932
               81                2       190.228653       239.686447               0.      -180.814194
               81                3       140.524048       231.999237               0.      -164.360779
               81                4       169.327881       271.919434               0.      -172.231003
               82                1       99.5896683       282.427856               0.      -127.657204
               82                2       74.2798233       299.729401               0.      -110.366516
               82                3       71.0662003       239.977463               0.      -122.443733
               82                4       46.8496017       256.372864               0.      -105.892334
               83                1       46.8986740       275.371124               0.      -20.8232689
               83                2       138.866577       318.967590               0.       1.99884772
               83                3       23.4893494       229.636581               0.      -38.6763420
               83                4       119.325127       279.874603               0.      -12.7481861
               84                1       139.883759       249.318542               0.      -106.611191
               84                2       130.067062       278.412170               0.      -83.7753906
               84                3       109.521408       194.092407               0.      -104.383041
               84                4       98.2156448       220.322891               0.      -82.3621445
               85                1       100.185043       247.014420               0.      -32.4305191
               85                2       125.616776       263.829437               0.      -17.3918591
               85                3       86.4178162       220.579239               0.      -38.0679169
               85                4       112.524597       237.853958               0.      -22.4642239
               86                1       118.272507       228.344849               0.      -21.1261539
               86                2       110.950592       212.328903               0.      -19.4400196
               86                3       127.853699       226.364044               0.      -28.4716225
               86                4       122.279579       211.038605               0.      -27.9154053
               87                1       113.205612       207.695023               0.      -12.4861279
               87                2       113.173180       205.377411               0.      -4.38853025
               87                3       137.624329       212.564682               0.      -12.9454546
               87                4       139.791000       210.571121               0.      -5.91796398
               88                1       136.451492       225.309952               0.      -60.1520119
               88                2       130.203262       187.960312               0.       -53.828125
               88                3       174.393768       226.029892               0.      -67.4950790
               88                4       174.479294       191.695114               0.      -62.7379112
               89                1       143.165207       184.499466               0.      -24.2427578
               89                2       150.208496       183.241486               0.      -12.0258713
               89                3       170.152557       188.399658               0.      -22.9480534
               89                4       177.602982       186.628052               0.      -12.3819847
               90                1       189.315079       149.539139               0.      -20.5916977
               90                2       218.693436       158.105515               0.      -19.7926750
               90                3       174.900040       147.964172               0.      -37.6038132
               90                4       204.803665       156.685593               0.      -35.6455078
               91                1       222.153595       97.3690872               0.      -28.8230133
               91                2       263.403290       119.201790               0.      -26.3843193
               91                3       199.313065       84.9207840               0.      -51.2571640
               91                4       242.595779       107.890465               0.      -47.7713051
               92                1       250.905167       31.6989346               0.      -32.8760910
               92                2       294.198944       57.6570396               0.      -31.9337254
               92                3       233.357086       22.9061317               0.      -51.7154884
               92                4       281.308533       51.8505554               0.      -51.0930634
               93                1       175.320541       159.103592               0.      -86.0157852
               93                2       231.153107       182.805969               0.      -85.5227356
               93                3       145.012665       158.513184               0.      -104.210869
               93                4       198.679779       182.945709               0.      -105.555443
               94                1       229.489288       125.393646               0.      -102.556122
               94                2       266.885254       145.425293               0.      -103.325241
               94                3       204.926346       126.551636               0.      -116.304237
               94                4       241.713043       146.988586               0.      -118.116966
               95                1       260.349579       75.1077957               0.      -113.737984
               95                2       309.079163       103.762215               0.      -116.985069
               95                3       231.258682       77.5931473               0.      -131.714569
               95                4       279.518036       107.272453               0.      -136.403076
               96                1       189.314468       285.444672               0.       182.133835
               96                2       207.561920       249.576431               0.       191.934006
               96                3       152.076996       234.889999               0.       171.104218
               96                4       170.462555       204.419708               0.       180.470001
               97                1       198.233688       246.818726               0.       151.654907
               97                2       203.216873       222.547409               0.       159.363052
               97                3       181.939957       221.281418               0.       147.615692
               97                4       185.412048       197.927551               0.       154.209290
               98                1       219.725220       223.986420               0.       138.599136
               98                2       200.852493       199.450195               0.       146.890045
               98                3       216.072083       213.071640               0.       139.049103
               98                4       199.068558       189.927750               0.       146.278671
               99                1       203.887405       176.115082               0.       149.657486
               99                2       224.067703       191.148087               0.       153.200256
               99                3       226.940063       171.767319               0.       145.024292
               99                4       246.743118       184.045532               0.       147.457336
              100                1       203.319397       159.873276               0.       172.151932
              100                2       239.686447       190.228653               0.       180.814194
              100                3       231.999237       140.524048               0.       164.360779
              100                4       271.919434       169.327881               0.       172.231003
              101                1       282.427856       99.5896683               0.       127.657204
              101                2       299.729401       74.2798233               0.       110.366516
              101                3       239.977463       71.0662003               0.       122.443733
              101                4       256.372864       46.8496017               0.       105.892334
              102                1       275.371124       46.8986740               0.       20.8232689
              102                2       318.967590       138.866577               0.      -1.99884772
              102                3       229.636581       23.4893494               0.       38.6763420
              102                4       279.874603       119.325127               0.       12.7481861
              103                1       249.318542       139.883759               0.       106.611191
              103                2       278.412170       130.067062               0.       83.7753906
              103                3       194.092407       109.521408               0.       104.383041
              103                4       220.322891       98.2156448               0.       82.3621445
              104                1       247.014420       100.185043               0.       32.4305191
              104                2       263.829437       125.616776               0.       17.3918591
              104                3       220.579239       86.4178162               0.       38.0679169
              104                4       237.853958       112.524597               0.       22.4642239
              105                1       228.344849       118.272507               0.       21.1261539
              105                2       212.328903       110.950592               0.       19.4400196
              105                3       226.364044       127.853699               0.       28.4716225
              105                4       211.038605       122.279579               0.       27.9154053
              106                1       207.695023       113.205612               0.       12.4861279
              106                2       205.377411       113.173180               0.       4.38853025
              106                3       212.564682       137.624329               0.       12.9454546
              106                4       210.571121       139.791000               0.       5.91796398
              107                1       225.309952       136.451492               0.       60.1520119
              107                2       187.960312       130.203262               0.        53.828125
              107                3       226.029892       174.393768               0.       67.4950790
              107                4       191.695114       174.479294               0.       62.7379112
              108                1       184.499466       143.165207               0.       24.2427578
              108                2       183.241486       150.208496               0.       12.0258713
              108                3       188.399658       170.152557               0.       22.9480534
              108                4       186.628052       177.602982               0.       12.3819847
              109                1       149.539139       189.315079               0.       20.5916977
              109                2       158.105515       218.693436               0.       19.7926750
              109                3       147.964172       174.900040               0.       37.6038132
              109                4       156.685593       204.803665               0.       35.6455078
              110                1       97.3690872       222.153595               0.       28.8230133
              110                2       119.201790       263.403290               0.       26.3843193
              110                3       84.9207840       199.313065               0.       51.2571640
              110                4       107.890465       242.595779               0.       47.7713051
              111                1       31.6989346       250.905167               0.       32.8760910
              111                2       57.6570396       294.198944               0.       31.9337254
              111                3       22.9061317       233.357086               0.       51.7154884
              111                4       51.8505554       281.308533               0.       51.0930634
              112                1       159.103592       175.320541               0.       86.0157852
              112                2       182.805969       231.153107               0.       85.5227356
              112                3       158.513184       145.012665               0.       104.210869
              112                4       182.945709       198.679779               0.       105.555443
              113                1       125.393646       229.489288               0.       102.556122
              113                2       145.425293       266.885254               0.       103.325241
              113                3       126.551636       204.926346               0.       116.304237
              113                4       146.988586       241.713043               0.       118.116966
              114                1       75.1077957       260.349579               0.       113.737984
              114                2       103.762215       309.079163               0.       116.985069
              114                3       77.5931473       231.258682               0.       131.714569
              114                4       107.272453       279.518036               0.       136.403076
              115                1       169.398895       271.905121               0.       172.188004
              115                2       190.200363       239.615448               0.       180.785751
              115                3       140.575699       231.970901               0.       164.312622
              115                4       159.820816       203.201309               0.       172.114227
              116                1       184.267120       246.675308               0.       147.419708
              116                2       191.127991       223.981308               0.       153.162842
              116                3       172.042191       226.953552               0.       145.003601
              116                4       176.167374       203.854111               0.       149.638641
              117                1       189.962646       199.076675               0.       146.292862
              117                2       199.799255       201.129074               0.       146.970230
              117                3       213.107010           215.75               0.       139.106735
              117                4       224.245712       219.577057               0.       138.713486
              118                1       198.084534       185.574326               0.       154.331223
              118                2       222.161362       202.988892               0.       159.386948
              118                3       221.202499       182.033691               0.       147.711044
              118                4       246.603928       198.222946               0.       151.729034
              119                1       204.108688       170.181625               0.       180.334229
              119                2       249.466766       207.374405               0.       191.808594
              119                3       235.119278       152.610580               0.       171.073624
              119                4       285.473175       189.717346               0.       182.043182
              120                1       279.266144       107.521873               0.       136.567978
              120                2       309.092926       104.768158               0.       117.090012
              120                3       230.857422       77.8141251               0.       131.895950
              120                4       260.063721       75.9481964               0.       113.863152
              121                1       281.367981       51.9761391               0.       51.3070946
              121                2       294.297058       57.7438965               0.       31.9588757
              121                3       233.124863       22.8599205               0.       51.8315582
              121                4       250.566345       31.5235939               0.       32.8755531
              122                1       241.647003       147.244614               0.       118.233772
              122                2       266.416351       144.836685               0.       103.525909
              122                3       205.331772       126.997749               0.       116.377602
              122                4       229.695282       125.145874               0.       102.720581
              123                1       242.709290       108.325584               0.       47.8126907
              123                2       263.319275       119.259018               0.        26.421875
              123                3       199.359756       85.3357010               0.       51.3382416
              123                4       222.425812       97.6191406               0.       28.7969952
              124                1       199.038315       182.665939               0.       105.629128
              124                2       231.679581       182.671249               0.       85.5999985
              124                3       145.360779       158.213211               0.       104.304924
              124                4       175.655182       158.851044               0.       86.1063385
              125                1       204.743301       156.337799               0.       35.6446724
              125                2       218.884155       158.078323               0.       19.7905045
              125                3       174.876709       147.601379               0.       37.6660233
              125                4       189.514481       149.476486               0.       20.6527157
              126                1       177.861404       186.625397               0.       12.3618193
              126                2       150.330276       183.204697               0.       12.0564737
              126                3       170.235062       188.244980               0.       22.9682064
              126                4       143.143539       184.308533               0.       24.3142262
              127                1       139.868210       210.584564               0.       5.91910553
              127                2       113.195251       205.381912               0.       4.38805866
              127                3       137.663055       212.568176               0.       12.9502192
              127                4       113.212555       207.691818               0.       12.4889917
              128                1       174.737000       191.638184               0.       62.8130150
              128                2       130.280716       187.799377               0.       53.8942642
              128                3       174.664871       225.957230               0.       67.6000290
              128                4       136.529510       225.154953               0.       60.2438545
              129                1       122.304329       211.044037               0.       27.9174919
              129                2       110.952988       212.317520               0.       19.4417744
              129                3       127.873047       226.349762               0.       28.4798794
              129                4       118.268112       228.317963               0.       21.1311264
              130                1       112.525673       237.828354               0.       22.4743042
              130                2       125.619400       263.810394               0.       17.4143219
              130                3       86.4794922       220.583435               0.       38.0784988
              130                4       100.237122       247.013901               0.       32.4589577
              131                1       119.309090       279.859192               0.       12.7741203
              131                2       138.854355       318.971649               0.      -1.97559822
              131                3       23.4658203       229.616653               0.       38.7075424
              131                4       46.8419533       275.348755               0.       20.8637638
              132                1       98.2918854       220.234848               0.       82.4327393
              132                2       130.161835       278.346954               0.       83.8444595
              132                3       109.543137       194.048981               0.       104.458771
              132                4       139.908478       249.229507               0.       106.709412
              133                1       46.9527359       256.397858               0.       105.920067
              133                2       74.3805466       299.734161               0.       110.386864
              133                3       71.0497589       239.978439               0.       122.467209
              133                4       99.5655975       282.393982               0.       127.677979
              134                1       271.905121       169.398895               0.      -172.188004
              134                2       239.615448       190.200363               0.      -180.785751
              134                3       231.970901       140.575699               0.      -164.312622
              134                4       203.201309       159.820816               0.      -172.114227
              135                1       246.675308       184.267120               0.      -147.419708
              135                2       223.981308       191.127991               0.      -153.162842
              135                3       226.953552       172.042191               0.      -145.003601
              135                4       203.854111       176.167374               0.      -149.638641
              136                1       199.076675       189.962646               0.      -146.292862
              136                2       201.129074       199.799255               0.      -146.970230
              136                3           215.75       213.107010               0.      -139.106735
              136                4       219.577057       224.245712               0.      -138.713486
              137                1       185.574326       198.084534               0.      -154.331223
              137                2       202.988892       222.161362               0.      -159.386948
              137                3       182.033691       221.202499               0.      -147.711044
              137                4       198.222946       246.603928               0.      -151.729034
              138                1       170.181625       204.108688               0.      -180.334229
              138                2       207.374405       249.466766               0.      -191.808594
              138                3       152.610580       235.119278               0.      -171.073624
              138                4       189.717346       285.473175               0.      -182.043182
              139                1       107.521873       279.266144               0.      -136.567978
              139                2       104.768158       309.092926               0.      -117.090012
              139                3       77.8141251       230.857422               0.      -131.895950
              139                4       75.9481964       260.063721               0.      -113.863152
              140                1       51.9761391       281.367981               0.      -51.3070946
              140                2       57.7438965       294.297058               0.      -31.9588757
              140                3       22.8599205       233.124863               0.      -51.8315582
              140                4       31.5235939       250.566345               0.      -32.8755531
              141                1       147.244614       241.647003               0.      -118.233772
              141                2       144.836685       266.416351               0.      -103.525909
              141                3       126.997749       205.331772               0.      -116.377602
              141                4       125.145874       229.695282               0.      -102.720581
              142                1       108.325584       242.709290               0.      -47.8126907
              142                2       119.259018       263.319275               0.       -26.421875
              142                3       85.3357010       199.359756               0.      -51.3382416
              142                4       97.6191406       222.425812               0.      -28.7969952
              143                1       182.665939       199.038315               0.      -105.629128
              143                2       182.671249       231.679581               0.      -85.5999985
              143                3       158.213211       145.360779               0.      -104.304924
              143                4       158.851044       175.655182               0.      -86.1063385
              144                1       156.337799       204.743301               0.      -35.6446724
              144                2       158.078323       218.884155               0.      -19.7905045
              144                3       147.601379       174.876709               0.      -37.6660233
              144                4       149.476486       189.514481               0.      -20.6527157
              145                1       186.625397       177.861404               0.      -12.3618193
              145                2       183.204697       150.330276               0.      -12.0564737
              145                3       188.244980       170.235062               0.      -22.9682064
              145                4       184.308533       143.143539               0.      -24.3142262
              146                1       210.584564       139.868210               0.      -5.91910553
              146                2       205.381912       113.195251               0.      -4.38805866
              146                3       212.568176       137.663055               0.      -12.9502192
              146                4       207.691818       113.212555               0.      -12.4889917
              147                1       191.638184       174.737000               0.      -62.8130150
              147                2       187.799377       130.280716               0.      -53.8942642
              147                3       225.957230       174.664871               0.      -67.6000290
              147                4       225.154953       136.529510               0.      -60.2438545
              148                1       211.044037       122.304329               0.      -27.9174919
              148                2       212.317520       110.952988               0.      -19.4417744
              148                3       226.349762       127.873047               0.      -28.4798794
              148                4       228.317963       118.268112               0.      -21.1311264
              149                1       237.828354       112.525673               0.      -22.4743042
              149                2       263.810394       125.619400               0.      -17.4143219
              149                3       220.583435       86.4794922               0.      -38.0784988
              149                4       247.013901       100.237122               0.      -32.4589577
              150                1       279.859192       119.309090               0.      -12.7741203
              150                2       318.971649       138.854355               0.       1.97559822
              150                3       229.616653       23.4658203               0.      -38.7075424
              150                4       275.348755       46.8419533               0.      -20.8637638
              151                1       220.234848       98.2918854               0.      -82.4327393
              151                2       278.346954       130.161835               0.      -83.8444595
              151                3       194.048981       109.543137               0.      -104.458771
              151                4       249.229507       139.908478               0.      -106.709412
              152                1       256.397858       46.9527359               0.      -105.920067
              152                2       299.734161       74.3805466               0.      -110.386864
              152                3       239.978439       71.0497589               0.      -122.467209
              152                4       282.393982       99.5655975               0.      -127.677979


********************************************************************************
Field Output Report, written Mon May 12 10:42:59 2025

Source 1
---------

   ODB: C:/lnms/Vid/CrossHoleSym2/CrossHoleSym2brezU.odb
   Step: loading
   Frame: Increment      7: Step Time =   0.7000

Loc 1 : Integration point values from source 1

Output sorted by column "Element Label".

Field Output reported at integration points for part: SPECIMEN-1

          Element              Int            S.S11            S.S22            S.S33            S.S12
            Label               Pt           @Loc 1           @Loc 1           @Loc 1           @Loc 1
-------------------------------------------------------------------------------------------------------
                1                1       299.717499       187.208038               0.      -191.254471
                1                2       263.345856       208.864685               0.      -201.003891
                1                3       256.128143       156.317017               0.      -181.891815
                1                4       223.821274       176.256973               0.      -190.718292
                2                1       271.280121       201.670380               0.      -163.620224
                2                2       245.483429       208.870987               0.      -170.209045
                2                3       249.179688       188.027496               0.      -160.613831
                2                4       223.010300       192.212128               0.      -165.890060
                3                1       216.950729       207.221237               0.      -162.367844
                3                2       219.625198       218.322296               0.      -163.118942
                3                3       235.303085       233.731445               0.      -154.419785
                3                4       239.813156       246.279968               0.      -153.992035
                4                1       202.445297       216.033920               0.      -171.382721
                4                2       221.774078       242.816483               0.      -177.317917
                4                3       199.149567       242.773224               0.      -163.725189
                4                4       217.161591       271.130341               0.      -168.453568
                5                1       187.774048       224.251602               0.      -199.894867
                5                2       227.752991       273.380646               0.      -213.315430
                5                3       169.706696       259.386047               0.      -189.387955
                5                4       209.555222       314.191284               0.      -202.227158
                6                1       116.139931       304.975037               0.      -151.549515
                6                2       115.368523       339.330841               0.      -129.587219
                6                3       84.2770462       251.470612               0.      -145.775940
                6                4       84.4033737       285.047302               0.      -125.570297
                7                1       55.3730049       306.527496               0.      -56.9329033
                7                2       62.4310379       321.467957               0.      -34.9788475
                7                3       23.1988430       252.213730               0.      -57.4325829
                7                4       33.4880981       272.407013               0.      -35.9493027
                8                1       159.018326       263.064667               0.      -130.728531
                8                2       157.109512       291.528809               0.      -113.892014
                8                3       136.171555       221.907288               0.      -128.311096
                8                4       134.906448       249.956940               0.      -112.707458
                9                1       116.101067       262.741058               0.      -52.7629738
                9                2       128.734131       286.170868               0.      -28.9498806
                9                3       89.9938965       213.373566               0.      -56.4654350
                9                4       104.222282       239.725052               0.      -31.4518948
               10                1       197.753113       214.889526               0.      -116.539246
               10                2       197.290466       252.757248               0.      -93.9001312
               10                3       169.359406       153.208572               0.      -114.833435
               10                4       169.817322       188.784027               0.      -94.3393250
               11                1       168.260880       220.869751               0.      -38.7828293
               11                2       170.422501       236.550507               0.      -21.5300674
               11                3       157.535599       187.018555               0.      -40.7913399
               11                4       159.776428       203.106171               0.      -22.3463497
               12                1       200.826645       191.469177               0.      -13.3589106
               12                2       195.911804       160.619186               0.      -12.8945084
               12                3       202.690384       183.166794               0.      -24.7852459
               12                4       197.367203       152.933945               0.      -26.0779152
               13                1       226.171555       150.171799               0.      -6.26908016
               13                2       219.765762       121.127495               0.      -4.64378023
               13                3       228.575256       148.008698               0.      -13.7586050
               13                4       222.630493       121.366074               0.      -13.2562656
               14                1       205.967178       188.911728               0.      -68.7683334
               14                2       201.413406       139.089508               0.      -58.5588417
               14                3       245.025284       189.176208               0.      -74.0244293
               14                4       243.887299       146.440857               0.      -65.5395126
               15                1       226.864471       130.879684               0.      -30.1447105
               15                2       228.081970       119.008926               0.      -20.7702713
               15                3       244.472931       137.550125               0.      -30.6782475
               15                4       246.536392       127.536003               0.      -22.5217838
               16                1       257.293732       121.386322               0.      -23.9738712
               16                2       286.522003       136.107544               0.      -18.4305954
               16                3       237.609360       91.6479721               0.      -41.2278824
               16                4       267.394104       107.121956               0.      -35.0794678
               17                1       304.406036       129.601486               0.      -13.4603004
               17                2       347.944031       151.358963               0.       2.34923172
               17                3       247.769318       23.3759975               0.      -42.1532745
               17                4       298.859375       49.5028419               0.      -22.9436378
               18                1       238.187881       105.308418               0.      -90.2217636
               18                2       304.197540       141.265015               0.      -91.9360733
               18                3       207.376587       116.957474               0.      -115.422897
               18                4       270.390839       151.359482               0.      -118.176025
               19                1       281.167084       51.7041168               0.      -116.202972
               19                2       329.901642       81.6688995               0.      -121.232315
               19                3       261.080872       76.7253113               0.      -135.345001
               19                4       308.925842       107.918243               0.      -141.359940
               20                1       314.155121       209.100098               0.      -202.327087
               20                2       273.494263       227.944260               0.      -213.456299
               20                3       259.134796       169.117645               0.      -189.423798
               20                4       224.585800       188.068832               0.      -200.054749
               21                1       271.373260       217.186615               0.      -168.371826
               21                2       243.246033       222.043488               0.      -177.295853
               21                3       242.859680       199.055115               0.      -163.616425
               21                4       215.853134       202.276550               0.      -171.243073
               22                1       245.985870       239.972885               0.      -153.864822
               22                2       217.928711       219.307861               0.      -163.026443
               22                3       233.689117       235.656952               0.      -154.358963
               22                4       207.180344       216.934204               0.      -162.353271
               23                1       192.153931       223.039642               0.      -165.912628
               23                2       208.895996       245.576889               0.      -170.252136
               23                3       187.713760       249.163651               0.      -160.636093
               23                4       201.416992       271.359222               0.      -163.661377
               24                1       176.316925       223.952393               0.      -190.762146
               24                2       208.901596       263.428619               0.      -201.036514
               24                3       156.254822       256.160889               0.      -181.947052
               24                4       187.126968       299.737518               0.      -191.303574
               25                1       107.952278       308.964020               0.      -141.336624
               25                2       81.5559082       329.895599               0.      -121.208870
               25                3       76.7486115       261.077789               0.      -135.319656
               25                4       51.5866356       281.137085               0.      -116.172073
               26                1       49.5687866       298.885651               0.      -22.8993206
               26                2       151.372910       347.939575               0.       2.37462091
               26                3       23.4045849       247.792419               0.      -42.1190948
               26                4       129.619629       304.423157               0.      -13.4318199
               27                1       151.345535       270.490906               0.      -118.066093
               27                2       141.161957       304.268890               0.      -91.8588486
               27                3       116.944901       207.420593               0.      -115.340042
               27                4       105.225380       238.284027               0.      -90.1443939
               28                1       107.063164       267.393402               0.      -35.0482635
               28                2       136.104446       286.542786               0.      -18.4058781
               28                3       91.5781937       237.603073               0.      -41.2165604
               28                4       121.384949       257.321899               0.      -23.9629154
               29                1       127.541557       246.566208               0.      -22.5162640
               29                2       119.006889       228.094543               0.      -20.7680607
               29                3       137.530167       244.487991               0.      -30.6688671
               29                4       130.853363       226.857452               0.      -30.1419411
               30                1       121.358170       222.633667               0.      -13.2529974
               30                2       121.103104       219.760178               0.      -4.64432764
               30                3       147.965149       228.569901               0.      -13.7533236
               30                4       150.086136       226.154205               0.      -6.26790333
               31                1       146.358292       244.058105               0.      -65.4368515
               31                2       139.008347       201.592285               0.      -58.4858131
               31                3       188.875687       245.101776               0.      -73.9066238
               31                4       188.626190       206.025620               0.      -68.6849823
               32                1       152.966064       197.580444               0.      -25.9999561
               32                2       160.486221       195.948105               0.      -12.8599224
               32                3       183.080719       202.859726               0.      -24.7618160
               32                4       191.180038       200.819473               0.      -13.3782768
               33                1       202.879883       159.835754               0.      -22.2779179
               33                2       236.336899       170.447876               0.      -21.5303631
               33                3       187.053329       157.936783               0.      -40.7228889
               33                4       220.948456       168.650314               0.      -38.7831497
               34                1       239.414032       103.935432               0.      -31.4762936
               34                2       286.261658       128.663116               0.      -28.9046955
               34                3       213.321762       89.5171509               0.      -56.3671341
               34                4       262.607971       115.596092               0.      -52.7098274
               35                1       272.783051       33.6780281               0.      -35.9524117
               35                2       321.365051       62.3500824               0.      -34.9544563
               35                3       252.473267       23.2743797               0.      -57.3183632
               35                4       306.476654       55.2836418               0.      -56.7070885
               36                1       188.414871       170.086288               0.      -94.2400665
               36                2       252.173782       197.424103               0.      -93.8129272
               36                3       152.818726       169.683960               0.      -114.728340
               36                4       214.492981       198.056488               0.      -116.455879
               37                1       249.715103       135.189194               0.      -112.525337
               37                2       292.047241       157.777252               0.      -113.679817
               37                3       221.443283       135.656631               0.      -128.226715
               37                4       263.129272       158.717682               0.      -130.604660
               38                1       285.363953       83.4641342               0.      -125.442604
               38                2       339.309998       114.251595               0.      -129.474365
               38                3       251.932373       84.0621262               0.      -145.575195
               38                4       305.269623       115.900658               0.      -151.360199
               39                1       187.208038       299.717499               0.       191.254471
               39                2       208.864685       263.345856               0.       201.003891
               39                3       156.317017       256.128143               0.       181.891815
               39                4       176.256973       223.821274               0.       190.718292
               40                1       201.670380       271.280121               0.       163.620224
               40                2       208.870987       245.483429               0.       170.209045
               40                3       188.027496       249.179688               0.       160.613831
               40                4       192.212128       223.010300               0.       165.890060
               41                1       207.221237       216.950729               0.       162.367844
               41                2       218.322296       219.625198               0.       163.118942
               41                3       233.731445       235.303085               0.       154.419785
               41                4       246.279968       239.813156               0.       153.992035
               42                1       216.033920       202.445297               0.       171.382721
               42                2       242.816483       221.774078               0.       177.317917
               42                3       242.773224       199.149567               0.       163.725189
               42                4       271.130341       217.161591               0.       168.453568
               43                1       224.251602       187.774048               0.       199.894867
               43                2       273.380646       227.752991               0.       213.315430
               43                3       259.386047       169.706696               0.       189.387955
               43                4       314.191284       209.555222               0.       202.227158
               44                1       304.975037       116.139931               0.       151.549515
               44                2       339.330841       115.368523               0.       129.587219
               44                3       251.470612       84.2770462               0.       145.775940
               44                4       285.047302       84.4033737               0.       125.570297
               45                1       306.527496       55.3730049               0.       56.9329033
               45                2       321.467957       62.4310379               0.       34.9788475
               45                3       252.213730       23.1988430               0.       57.4325829
               45                4       272.407013       33.4880981               0.       35.9493027
               46                1       263.064667       159.018326               0.       130.728531
               46                2       291.528809       157.109512               0.       113.892014
               46                3       221.907288       136.171555               0.       128.311096
               46                4       249.956940       134.906448               0.       112.707458
               47                1       262.741058       116.101067               0.       52.7629738
               47                2       286.170868       128.734131               0.       28.9498806
               47                3       213.373566       89.9938965               0.       56.4654350
               47                4       239.725052       104.222282               0.       31.4518948
               48                1       214.889526       197.753113               0.       116.539246
               48                2       252.757248       197.290466               0.       93.9001312
               48                3       153.208572       169.359406               0.       114.833435
               48                4       188.784027       169.817322               0.       94.3393250
               49                1       220.869751       168.260880               0.       38.7828293
               49                2       236.550507       170.422501               0.       21.5300674
               49                3       187.018555       157.535599               0.       40.7913399
               49                4       203.106171       159.776428               0.       22.3463497
               50                1       191.469177       200.826645               0.       13.3589106
               50                2       160.619186       195.911804               0.       12.8945084
               50                3       183.166794       202.690384               0.       24.7852459
               50                4       152.933945       197.367203               0.       26.0779152
               51                1       150.171799       226.171555               0.       6.26908016
               51                2       121.127495       219.765762               0.       4.64378023
               51                3       148.008698       228.575256               0.       13.7586050
               51                4       121.366074       222.630493               0.       13.2562656
               52                1       188.911728       205.967178               0.       68.7683334
               52                2       139.089508       201.413406               0.       58.5588417
               52                3       189.176208       245.025284               0.       74.0244293
               52                4       146.440857       243.887299               0.       65.5395126
               53                1       130.879684       226.864471               0.       30.1447105
               53                2       119.008926       228.081970               0.       20.7702713
               53                3       137.550125       244.472931               0.       30.6782475
               53                4       127.536003       246.536392               0.       22.5217838
               54                1       121.386322       257.293732               0.       23.9738712
               54                2       136.107544       286.522003               0.       18.4305954
               54                3       91.6479721       237.609360               0.       41.2278824
               54                4       107.121956       267.394104               0.       35.0794678
               55                1       129.601486       304.406036               0.       13.4603004
               55                2       151.358963       347.944031               0.      -2.34923172
               55                3       23.3759975       247.769318               0.       42.1532745
               55                4       49.5028419       298.859375               0.       22.9436378
               56                1       105.308418       238.187881               0.       90.2217636
               56                2       141.265015       304.197540               0.       91.9360733
               56                3       116.957474       207.376587               0.       115.422897
               56                4       151.359482       270.390839               0.       118.176025
               57                1       51.7041168       281.167084               0.       116.202972
               57                2       81.6688995       329.901642               0.       121.232315
               57                3       76.7253113       261.080872               0.       135.345001
               57                4       107.918243       308.925842               0.       141.359940
               58                1       209.100098       314.155121               0.       202.327087
               58                2       227.944260       273.494263               0.       213.456299
               58                3       169.117645       259.134796               0.       189.423798
               58                4       188.068832       224.585800               0.       200.054749
               59                1       217.186615       271.373260               0.       168.371826
               59                2       222.043488       243.246033               0.       177.295853
               59                3       199.055115       242.859680               0.       163.616425
               59                4       202.276550       215.853134               0.       171.243073
               60                1       239.972885       245.985870               0.       153.864822
               60                2       219.307861       217.928711               0.       163.026443
               60                3       235.656952       233.689117               0.       154.358963
               60                4       216.934204       207.180344               0.       162.353271
               61                1       223.039642       192.153931               0.       165.912628
               61                2       245.576889       208.895996               0.       170.252136
               61                3       249.163651       187.713760               0.       160.636093
               61                4       271.359222       201.416992               0.       163.661377
               62                1       223.952393       176.316925               0.       190.762146
               62                2       263.428619       208.901596               0.       201.036514
               62                3       256.160889       156.254822               0.       181.947052
               62                4       299.737518       187.126968               0.       191.303574
               63                1       308.964020       107.952278               0.       141.336624
               63                2       329.895599       81.5559082               0.       121.208870
               63                3       261.077789       76.7486115               0.       135.319656
               63                4       281.137085       51.5866356               0.       116.172073
               64                1       298.885651       49.5687866               0.       22.8993206
               64                2       347.939575       151.372910               0.      -2.37462091
               64                3       247.792419       23.4045849               0.       42.1190948
               64                4       304.423157       129.619629               0.       13.4318199
               65                1       270.490906       151.345535               0.       118.066093
               65                2       304.268890       141.161957               0.       91.8588486
               65                3       207.420593       116.944901               0.       115.340042
               65                4       238.284027       105.225380               0.       90.1443939
               66                1       267.393402       107.063164               0.       35.0482635
               66                2       286.542786       136.104446               0.       18.4058781
               66                3       237.603073       91.5781937               0.       41.2165604
               66                4       257.321899       121.384949               0.       23.9629154
               67                1       246.566208       127.541557               0.       22.5162640
               67                2       228.094543       119.006889               0.       20.7680607
               67                3       244.487991       137.530167               0.       30.6688671
               67                4       226.857452       130.853363               0.       30.1419411
               68                1       222.633667       121.358170               0.       13.2529974
               68                2       219.760178       121.103104               0.       4.64432764
               68                3       228.569901       147.965149               0.       13.7533236
               68                4       226.154205       150.086136               0.       6.26790333
               69                1       244.058105       146.358292               0.       65.4368515
               69                2       201.592285       139.008347               0.       58.4858131
               69                3       245.101776       188.875687               0.       73.9066238
               69                4       206.025620       188.626190               0.       68.6849823
               70                1       197.580444       152.966064               0.       25.9999561
               70                2       195.948105       160.486221               0.       12.8599224
               70                3       202.859726       183.080719               0.       24.7618160
               70                4       200.819473       191.180038               0.       13.3782768
               71                1       159.835754       202.879883               0.       22.2779179
               71                2       170.447876       236.336899               0.       21.5303631
               71                3       157.936783       187.053329               0.       40.7228889
               71                4       168.650314       220.948456               0.       38.7831497
               72                1       103.935432       239.414032               0.       31.4762936
               72                2       128.663116       286.261658               0.       28.9046955
               72                3       89.5171509       213.321762               0.       56.3671341
               72                4       115.596092       262.607971               0.       52.7098274
               73                1       33.6780281       272.783051               0.       35.9524117
               73                2       62.3500824       321.365051               0.       34.9544563
               73                3       23.2743797       252.473267               0.       57.3183632
               73                4       55.2836418       306.476654               0.       56.7070885
               74                1       170.086288       188.414871               0.       94.2400665
               74                2       197.424103       252.173782               0.       93.8129272
               74                3       169.683960       152.818726               0.       114.728340
               74                4       198.056488       214.492981               0.       116.455879
               75                1       135.189194       249.715103               0.       112.525337
               75                2       157.777252       292.047241               0.       113.679817
               75                3       135.656631       221.443283               0.       128.226715
               75                4       158.717682       263.129272               0.       130.604660
               76                1       83.4641342       285.363953               0.       125.442604
               76                2       114.251595       339.309998               0.       129.474365
               76                3       84.0621262       251.932373               0.       145.575195
               76                4       115.900658       305.269623               0.       151.360199
               77                1       314.155121       209.100098               0.      -202.327087
               77                2       273.494263       227.944260               0.      -213.456299
               77                3       259.134796       169.117645               0.      -189.423798
               77                4       224.585800       188.068832               0.      -200.054749
               78                1       271.373260       217.186615               0.      -168.371826
               78                2       243.246033       222.043488               0.      -177.295853
               78                3       242.859680       199.055115               0.      -163.616425
               78                4       215.853134       202.276550               0.      -171.243073
               79                1       245.985870       239.972885               0.      -153.864822
               79                2       217.928711       219.307861               0.      -163.026443
               79                3       233.689117       235.656952               0.      -154.358963
               79                4       207.180344       216.934204               0.      -162.353271
               80                1       192.153931       223.039642               0.      -165.912628
               80                2       208.895996       245.576889               0.      -170.252136
               80                3       187.713760       249.163651               0.      -160.636093
               80                4       201.416992       271.359222               0.      -163.661377
               81                1       176.316925       223.952393               0.      -190.762146
               81                2       208.901596       263.428619               0.      -201.036514
               81                3       156.254822       256.160889               0.      -181.947052
               81                4       187.126968       299.737518               0.      -191.303574
               82                1       107.952278       308.964020               0.      -141.336624
               82                2       81.5559082       329.895599               0.      -121.208870
               82                3       76.7486115       261.077789               0.      -135.319656
               82                4       51.5866356       281.137085               0.      -116.172073
               83                1       49.5687866       298.885651               0.      -22.8993206
               83                2       151.372910       347.939575               0.       2.37462091
               83                3       23.4045849       247.792419               0.      -42.1190948
               83                4       129.619629       304.423157               0.      -13.4318199
               84                1       151.345535       270.490906               0.      -118.066093
               84                2       141.161957       304.268890               0.      -91.8588486
               84                3       116.944901       207.420593               0.      -115.340042
               84                4       105.225380       238.284027               0.      -90.1443939
               85                1       107.063164       267.393402               0.      -35.0482635
               85                2       136.104446       286.542786               0.      -18.4058781
               85                3       91.5781937       237.603073               0.      -41.2165604
               85                4       121.384949       257.321899               0.      -23.9629154
               86                1       127.541557       246.566208               0.      -22.5162640
               86                2       119.006889       228.094543               0.      -20.7680607
               86                3       137.530167       244.487991               0.      -30.6688671
               86                4       130.853363       226.857452               0.      -30.1419411
               87                1       121.358170       222.633667               0.      -13.2529974
               87                2       121.103104       219.760178               0.      -4.64432764
               87                3       147.965149       228.569901               0.      -13.7533236
               87                4       150.086136       226.154205               0.      -6.26790333
               88                1       146.358292       244.058105               0.      -65.4368515
               88                2       139.008347       201.592285               0.      -58.4858131
               88                3       188.875687       245.101776               0.      -73.9066238
               88                4       188.626190       206.025620               0.      -68.6849823
               89                1       152.966064       197.580444               0.      -25.9999561
               89                2       160.486221       195.948105               0.      -12.8599224
               89                3       183.080719       202.859726               0.      -24.7618160
               89                4       191.180038       200.819473               0.      -13.3782768
               90                1       202.879883       159.835754               0.      -22.2779179
               90                2       236.336899       170.447876               0.      -21.5303631
               90                3       187.053329       157.936783               0.      -40.7228889
               90                4       220.948456       168.650314               0.      -38.7831497
               91                1       239.414032       103.935432               0.      -31.4762936
               91                2       286.261658       128.663116               0.      -28.9046955
               91                3       213.321762       89.5171509               0.      -56.3671341
               91                4       262.607971       115.596092               0.      -52.7098274
               92                1       272.783051       33.6780281               0.      -35.9524117
               92                2       321.365051       62.3500824               0.      -34.9544563
               92                3       252.473267       23.2743797               0.      -57.3183632
               92                4       306.476654       55.2836418               0.      -56.7070885
               93                1       188.414871       170.086288               0.      -94.2400665
               93                2       252.173782       197.424103               0.      -93.8129272
               93                3       152.818726       169.683960               0.      -114.728340
               93                4       214.492981       198.056488               0.      -116.455879
               94                1       249.715103       135.189194               0.      -112.525337
               94                2       292.047241       157.777252               0.      -113.679817
               94                3       221.443283       135.656631               0.      -128.226715
               94                4       263.129272       158.717682               0.      -130.604660
               95                1       285.363953       83.4641342               0.      -125.442604
               95                2       339.309998       114.251595               0.      -129.474365
               95                3       251.932373       84.0621262               0.      -145.575195
               95                4       305.269623       115.900658               0.      -151.360199
               96                1       209.100098       314.155121               0.       202.327087
               96                2       227.944260       273.494263               0.       213.456299
               96                3       169.117645       259.134796               0.       189.423798
               96                4       188.068832       224.585800               0.       200.054749
               97                1       217.186615       271.373260               0.       168.371826
               97                2       222.043488       243.246033               0.       177.295853
               97                3       199.055115       242.859680               0.       163.616425
               97                4       202.276550       215.853134               0.       171.243073
               98                1       239.972885       245.985870               0.       153.864822
               98                2       219.307861       217.928711               0.       163.026443
               98                3       235.656952       233.689117               0.       154.358963
               98                4       216.934204       207.180344               0.       162.353271
               99                1       223.039642       192.153931               0.       165.912628
               99                2       245.576889       208.895996               0.       170.252136
               99                3       249.163651       187.713760               0.       160.636093
               99                4       271.359222       201.416992               0.       163.661377
              100                1       223.952393       176.316925               0.       190.762146
              100                2       263.428619       208.901596               0.       201.036514
              100                3       256.160889       156.254822               0.       181.947052
              100                4       299.737518       187.126968               0.       191.303574
              101                1       308.964020       107.952278               0.       141.336624
              101                2       329.895599       81.5559082               0.       121.208870
              101                3       261.077789       76.7486115               0.       135.319656
              101                4       281.137085       51.5866356               0.       116.172073
              102                1       298.885651       49.5687866               0.       22.8993206
              102                2       347.939575       151.372910               0.      -2.37462091
              102                3       247.792419       23.4045849               0.       42.1190948
              102                4       304.423157       129.619629               0.       13.4318199
              103                1       270.490906       151.345535               0.       118.066093
              103                2       304.268890       141.161957               0.       91.8588486
              103                3       207.420593       116.944901               0.       115.340042
              103                4       238.284027       105.225380               0.       90.1443939
              104                1       267.393402       107.063164               0.       35.0482635
              104                2       286.542786       136.104446               0.       18.4058781
              104                3       237.603073       91.5781937               0.       41.2165604
              104                4       257.321899       121.384949               0.       23.9629154
              105                1       246.566208       127.541557               0.       22.5162640
              105                2       228.094543       119.006889               0.       20.7680607
              105                3       244.487991       137.530167               0.       30.6688671
              105                4       226.857452       130.853363               0.       30.1419411
              106                1       222.633667       121.358170               0.       13.2529974
              106                2       219.760178       121.103104               0.       4.64432764
              106                3       228.569901       147.965149               0.       13.7533236
              106                4       226.154205       150.086136               0.       6.26790333
              107                1       244.058105       146.358292               0.       65.4368515
              107                2       201.592285       139.008347               0.       58.4858131
              107                3       245.101776       188.875687               0.       73.9066238
              107                4       206.025620       188.626190               0.       68.6849823
              108                1       197.580444       152.966064               0.       25.9999561
              108                2       195.948105       160.486221               0.       12.8599224
              108                3       202.859726       183.080719               0.       24.7618160
              108                4       200.819473       191.180038               0.       13.3782768
              109                1       159.835754       202.879883               0.       22.2779179
              109                2       170.447876       236.336899               0.       21.5303631
              109                3       157.936783       187.053329               0.       40.7228889
              109                4       168.650314       220.948456               0.       38.7831497
              110                1       103.935432       239.414032               0.       31.4762936
              110                2       128.663116       286.261658               0.       28.9046955
              110                3       89.5171509       213.321762               0.       56.3671341
              110                4       115.596092       262.607971               0.       52.7098274
              111                1       33.6780281       272.783051               0.       35.9524117
              111                2       62.3500824       321.365051               0.       34.9544563
              111                3       23.2743797       252.473267               0.       57.3183632
              111                4       55.2836418       306.476654               0.       56.7070885
              112                1       170.086288       188.414871               0.       94.2400665
              112                2       197.424103       252.173782               0.       93.8129272
              112                3       169.683960       152.818726               0.       114.728340
              112                4       198.056488       214.492981               0.       116.455879
              113                1       135.189194       249.715103               0.       112.525337
              113                2       157.777252       292.047241               0.       113.679817
              113                3       135.656631       221.443283               0.       128.226715
              113                4       158.717682       263.129272               0.       130.604660
              114                1       83.4641342       285.363953               0.       125.442604
              114                2       114.251595       339.309998               0.       129.474365
              114                3       84.0621262       251.932373               0.       145.575195
              114                4       115.900658       305.269623               0.       151.360199
              115                1       187.208038       299.717499               0.       191.254471
              115                2       208.864685       263.345856               0.       201.003891
              115                3       156.317017       256.128143               0.       181.891815
              115                4       176.256973       223.821274               0.       190.718292
              116                1       201.670380       271.280121               0.       163.620224
              116                2       208.870987       245.483429               0.       170.209045
              116                3       188.027496       249.179688               0.       160.613831
              116                4       192.212128       223.010300               0.       165.890060
              117                1       207.221237       216.950729               0.       162.367844
              117                2       218.322296       219.625198               0.       163.118942
              117                3       233.731445       235.303085               0.       154.419785
              117                4       246.279968       239.813156               0.       153.992035
              118                1       216.033920       202.445297               0.       171.382721
              118                2       242.816483       221.774078               0.       177.317917
              118                3       242.773224       199.149567               0.       163.725189
              118                4       271.130341       217.161591               0.       168.453568
              119                1       224.251602       187.774048               0.       199.894867
              119                2       273.380646       227.752991               0.       213.315430
              119                3       259.386047       169.706696               0.       189.387955
              119                4       314.191284       209.555222               0.       202.227158
              120                1       304.975037       116.139931               0.       151.549515
              120                2       339.330841       115.368523               0.       129.587219
              120                3       251.470612       84.2770462               0.       145.775940
              120                4       285.047302       84.4033737               0.       125.570297
              121                1       306.527496       55.3730049               0.       56.9329033
              121                2       321.467957       62.4310379               0.       34.9788475
              121                3       252.213730       23.1988430               0.       57.4325829
              121                4       272.407013       33.4880981               0.       35.9493027
              122                1       263.064667       159.018326               0.       130.728531
              122                2       291.528809       157.109512               0.       113.892014
              122                3       221.907288       136.171555               0.       128.311096
              122                4       249.956940       134.906448               0.       112.707458
              123                1       262.741058       116.101067               0.       52.7629738
              123                2       286.170868       128.734131               0.       28.9498806
              123                3       213.373566       89.9938965               0.       56.4654350
              123                4       239.725052       104.222282               0.       31.4518948
              124                1       214.889526       197.753113               0.       116.539246
              124                2       252.757248       197.290466               0.       93.9001312
              124                3       153.208572       169.359406               0.       114.833435
              124                4       188.784027       169.817322               0.       94.3393250
              125                1       220.869751       168.260880               0.       38.7828293
              125                2       236.550507       170.422501               0.       21.5300674
              125                3       187.018555       157.535599               0.       40.7913399
              125                4       203.106171       159.776428               0.       22.3463497
              126                1       191.469177       200.826645               0.       13.3589106
              126                2       160.619186       195.911804               0.       12.8945084
              126                3       183.166794       202.690384               0.       24.7852459
              126                4       152.933945       197.367203               0.       26.0779152
              127                1       150.171799       226.171555               0.       6.26908016
              127                2       121.127495       219.765762               0.       4.64378023
              127                3       148.008698       228.575256               0.       13.7586050
              127                4       121.366074       222.630493               0.       13.2562656
              128                1       188.911728       205.967178               0.       68.7683334
              128                2       139.089508       201.413406               0.       58.5588417
              128                3       189.176208       245.025284               0.       74.0244293
              128                4       146.440857       243.887299               0.       65.5395126
              129                1       130.879684       226.864471               0.       30.1447105
              129                2       119.008926       228.081970               0.       20.7702713
              129                3       137.550125       244.472931               0.       30.6782475
              129                4       127.536003       246.536392               0.       22.5217838
              130                1       121.386322       257.293732               0.       23.9738712
              130                2       136.107544       286.522003               0.       18.4305954
              130                3       91.6479721       237.609360               0.       41.2278824
              130                4       107.121956       267.394104               0.       35.0794678
              131                1       129.601486       304.406036               0.       13.4603004
              131                2       151.358963       347.944031               0.      -2.34923172
              131                3       23.3759975       247.769318               0.       42.1532745
              131                4       49.5028419       298.859375               0.       22.9436378
              132                1       105.308418       238.187881               0.       90.2217636
              132                2       141.265015       304.197540               0.       91.9360733
              132                3       116.957474       207.376587               0.       115.422897
              132                4       151.359482       270.390839               0.       118.176025
              133                1       51.7041168       281.167084               0.       116.202972
              133                2       81.6688995       329.901642               0.       121.232315
              133                3       76.7253113       261.080872               0.       135.345001
              133                4       107.918243       308.925842               0.       141.359940
              134                1       299.717499       187.208038               0.      -191.254471
              134                2       263.345856       208.864685               0.      -201.003891
              134                3       256.128143       156.317017               0.      -181.891815
              134                4       223.821274       176.256973               0.      -190.718292
              135                1       271.280121       201.670380               0.      -163.620224
              135                2       245.483429       208.870987               0.      -170.209045
              135                3       249.179688       188.027496               0.      -160.613831
              135                4       223.010300       192.212128               0.      -165.890060
              136                1       216.950729       207.221237               0.      -162.367844
              136                2       219.625198       218.322296               0.      -163.118942
              136                3       235.303085       233.731445               0.      -154.419785
              136                4       239.813156       246.279968               0.      -153.992035
              137                1       202.445297       216.033920               0.      -171.382721
              137                2       221.774078       242.816483               0.      -177.317917
              137                3       199.149567       242.773224               0.      -163.725189
              137                4       217.161591       271.130341               0.      -168.453568
              138                1       187.774048       224.251602               0.      -199.894867
              138                2       227.752991       273.380646               0.      -213.315430
              138                3       169.706696       259.386047               0.      -189.387955
              138                4       209.555222       314.191284               0.      -202.227158
              139                1       116.139931       304.975037               0.      -151.549515
              139                2       115.368523       339.330841               0.      -129.587219
              139                3       84.2770462       251.470612               0.      -145.775940
              139                4       84.4033737       285.047302               0.      -125.570297
              140                1       55.3730049       306.527496               0.      -56.9329033
              140                2       62.4310379       321.467957               0.      -34.9788475
              140                3       23.1988430       252.213730               0.      -57.4325829
              140                4       33.4880981       272.407013               0.      -35.9493027
              141                1       159.018326       263.064667               0.      -130.728531
              141                2       157.109512       291.528809               0.      -113.892014
              141                3       136.171555       221.907288               0.      -128.311096
              141                4       134.906448       249.956940               0.      -112.707458
              142                1       116.101067       262.741058               0.      -52.7629738
              142                2       128.734131       286.170868               0.      -28.9498806
              142                3       89.9938965       213.373566               0.      -56.4654350
              142                4       104.222282       239.725052               0.      -31.4518948
              143                1       197.753113       214.889526               0.      -116.539246
              143                2       197.290466       252.757248               0.      -93.9001312
              143                3       169.359406       153.208572               0.      -114.833435
              143                4       169.817322       188.784027               0.      -94.3393250
              144                1       168.260880       220.869751               0.      -38.7828293
              144                2       170.422501       236.550507               0.      -21.5300674
              144                3       157.535599       187.018555               0.      -40.7913399
              144                4       159.776428       203.106171               0.      -22.3463497
              145                1       200.826645       191.469177               0.      -13.3589106
              145                2       195.911804       160.619186               0.      -12.8945084
              145                3       202.690384       183.166794               0.      -24.7852459
              145                4       197.367203       152.933945               0.      -26.0779152
              146                1       226.171555       150.171799               0.      -6.26908016
              146                2       219.765762       121.127495               0.      -4.64378023
              146                3       228.575256       148.008698               0.      -13.7586050
              146                4       222.630493       121.366074               0.      -13.2562656
              147                1       205.967178       188.911728               0.      -68.7683334
              147                2       201.413406       139.089508               0.      -58.5588417
              147                3       245.025284       189.176208               0.      -74.0244293
              147                4       243.887299       146.440857               0.      -65.5395126
              148                1       226.864471       130.879684               0.      -30.1447105
              148                2       228.081970       119.008926               0.      -20.7702713
              148                3       244.472931       137.550125               0.      -30.6782475
              148                4       246.536392       127.536003               0.      -22.5217838
              149                1       257.293732       121.386322               0.      -23.9738712
              149                2       286.522003       136.107544               0.      -18.4305954
              149                3       237.609360       91.6479721               0.      -41.2278824
              149                4       267.394104       107.121956               0.      -35.0794678
              150                1       304.406036       129.601486               0.      -13.4603004
              150                2       347.944031       151.358963               0.       2.34923172
              150                3       247.769318       23.3759975               0.      -42.1532745
              150                4       298.859375       49.5028419               0.      -22.9436378
              151                1       238.187881       105.308418               0.      -90.2217636
              151                2       304.197540       141.265015               0.      -91.9360733
              151                3       207.376587       116.957474               0.      -115.422897
              151                4       270.390839       151.359482               0.      -118.176025
              152                1       281.167084       51.7041168               0.      -116.202972
              152                2       329.901642       81.6688995               0.      -121.232315
              152                3       261.080872       76.7253113               0.      -135.345001
              152                4       308.925842       107.918243               0.      -141.359940


********************************************************************************
Field Output Report, written Mon May 12 10:43:02 2025

Source 1
---------

   ODB: C:/lnms/Vid/CrossHoleSym2/CrossHoleSym2brezU.odb
   Step: loading
   Frame: Increment      8: Step Time =   0.8000

Loc 1 : Integration point values from source 1

Output sorted by column "Element Label".

Field Output reported at integration points for part: SPECIMEN-1

          Element              Int            S.S11            S.S22            S.S33            S.S12
            Label               Pt           @Loc 1           @Loc 1           @Loc 1           @Loc 1
-------------------------------------------------------------------------------------------------------
                1                1       326.963043       204.746490               0.      -210.043793
                1                2       286.400818       227.015610               0.      -220.973099
                1                3       280.048157       172.034149               0.      -199.286713
                1                4       244.088150       192.463654               0.      -209.165512
                2                1       295.530457       218.638092               0.      -179.774872
                2                2       266.518463       226.150711               0.      -187.230240
                2                3       271.146576       203.657150               0.      -176.197449
                2                4       241.814453       207.889496               0.      -182.136887
                3                1       234.335205       224.112183               0.      -178.490952
                3                2       237.716003       236.519302               0.      -179.325241
                3                3       254.248657       254.121964               0.      -169.789169
                3                4       259.488770       268.115234               0.      -169.337418
                4                1       218.956604       233.563004               0.      -188.500366
                4                2       240.096024       262.924286               0.      -195.307358
                4                3       216.029282       264.129272               0.      -179.766495
                4                4       235.776489       295.333252               0.      -185.194656
                5                1       205.238724       244.017563               0.      -219.353302
                5                2       247.630630       296.485016               0.      -234.634583
                5                3       186.973129       283.418304               0.      -207.581726
                5                4       229.218826       342.228882               0.      -222.203003
                6                1       124.149559       329.339630               0.      -166.222031
                6                2       125.728874       368.479950               0.      -141.732040
                6                3       90.3507462       271.081573               0.      -159.431107
                6                4       92.7978134       309.287903               0.      -137.003647
                7                1       58.3754768       330.034302               0.      -62.4049644
                7                2       66.7881699       347.055084               0.      -37.7936783
                7                3       23.2220097       269.877106               0.      -62.9216309
                7                4       35.2083549       292.913239               0.      -38.8371201
                8                1       170.073425       283.438721               0.      -143.079041
                8                2       168.857452       315.840271               0.      -124.044937
                8                3       144.698349       237.501709               0.      -140.134415
                8                4       144.215759       269.506348               0.      -122.520638
                9                1       123.189209       281.322845               0.      -57.6530037
                9                2       137.536407       307.618500               0.      -31.3425503
                9                3       94.0115280       226.059845               0.      -61.6199989
                9                4       110.259163       255.868393               0.      -34.0113869
               10                1       212.098816       229.700317               0.      -127.356262
               10                2       211.065704       273.168274               0.      -102.013664
               10                3       179.620453       159.634583               0.      -125.290321
               10                4       179.886932       201.017868               0.      -102.455643
               11                1       179.315414       235.884109               0.      -41.8309097
               11                2       181.917465       253.084427               0.      -23.1810760
               11                3       166.728073       198.203705               0.      -43.8780060
               11                4       169.382813       215.779236               0.      -23.9818363
               12                1       214.101532       204.167587               0.      -14.3093138
               12                2       207.795166       170.164566               0.      -13.6834641
               12                3       216.217896       195.209930               0.      -26.5088520
               12                4       209.597610       161.985291               0.      -27.7459145
               13                1       240.712067       159.685089               0.      -6.56382751
               13                2       233.172226       128.490540               0.      -4.86219931
               13                3       243.495514       157.569077               0.      -14.4546423
               13                4       236.545883       128.936462               0.      -13.9212275
               14                1       219.152649       202.402191               0.      -74.5918045
               14                2       214.100128       147.253067               0.      -63.0880966
               14                3       262.998230       202.915070               0.      -80.2514038
               14                4       261.665009       155.599869               0.      -70.6117554
               15                1       241.550720       138.711349               0.      -32.2275124
               15                2       242.758072       126.469872               0.      -21.9607201
               15                3       261.326019       146.425171               0.      -32.6924934
               15                4       263.513184       136.135452               0.      -23.7360153
               16                1       275.424561       129.566833               0.      -25.2778740
               16                2       307.673248       145.806870               0.      -19.2500153
               16                3       253.331848       96.0899277               0.      -44.1667290
               16                4       286.279694       113.201019               0.      -37.4753952
               17                1       327.259186       139.131088               0.      -13.9918041
               17                2       374.910248       162.970947               0.       2.78873515
               17                3       264.354553       22.7697220               0.      -45.4750824
               17                4       320.613831       51.6759453               0.      -24.9574013
               18                1       255.139648       111.845596               0.      -97.7843552
               18                2       329.029083       151.869293               0.      -99.6697617
               18                3       219.079010       123.663818               0.      -126.337151
               18                4       290.085266       162.121353               0.      -129.483902
               19                1       305.076477       56.4759483               0.      -126.043762
               19                2       359.017639       88.8423233               0.      -131.525269
               19                3       280.858643       81.9152145               0.      -147.930878
               19                4       333.967163       115.615669               0.      -154.650879
               20                1       342.184509       228.708923               0.      -222.312790
               20                2       296.599731       247.824234               0.      -234.790604
               20                3       283.144043       186.325043               0.      -207.623962
               20                4       244.368683       205.542969               0.      -219.537094
               21                1       295.603424       235.818146               0.      -185.104355
               21                2       263.394409       240.406937               0.      -195.286499
               21                3       264.223114       215.937302               0.      -179.643265
               21                4       233.358154       218.783997               0.      -188.342361
               22                1       267.786957       259.659271               0.      -169.197510
               22                2       236.081375       237.357697               0.      -179.220169
               22                3       254.071823       254.632080               0.      -169.725327
               22                4       224.063934       234.308502               0.      -178.475845
               23                1       207.824783       241.837128               0.      -182.163116
               23                2       226.180756       266.617401               0.      -187.279037
               23                3       203.301819       271.127655               0.      -176.221024
               23                4       218.350433       295.621613               0.      -179.819290
               24                1       192.531235       244.231232               0.      -209.215698
               24                2       227.062531       286.495697               0.      -221.010178
               24                3       171.959152       280.085327               0.      -199.349289
               24                4       204.654053       326.989960               0.      -210.099274
               25                1       115.661774       334.009644               0.      -154.624908
               25                2       88.7172928       359.009949               0.      -131.498535
               25                3       81.9470139       280.852875               0.      -147.903687
               25                4       56.3439484       305.040741               0.      -126.009560
               26                1       51.7509346       320.644104               0.      -24.9093647
               26                2       162.986588       374.905579               0.       2.81625628
               26                3       22.8031902       264.380829               0.      -45.4380531
               26                4       139.151230       327.277924               0.      -13.9608107
               27                1       162.121689       290.196503               0.      -129.362000
               27                2       151.758362       329.105621               0.      -99.5840836
               27                3       123.663376       219.122238               0.      -126.247269
               27                4       111.755676       255.242508               0.      -97.6999207
               28                1       113.134987       286.277527               0.      -37.4415779
               28                2       145.803131       307.695587               0.      -19.2230968
               28                3       96.0113754       253.323120               0.      -44.1548653
               28                4       129.564926       275.454987               0.      -25.2661304
               29                1       136.142227       263.545654               0.      -23.7299995
               29                2       126.468323       242.771744               0.      -21.9580460
               29                3       146.405167       261.341736               0.      -32.6820793
               29                4       138.684113       241.542175               0.      -32.2241135
               30                1       128.927643       236.549026               0.      -13.9174986
               30                2       128.463989       233.165634               0.      -4.86272955
               30                3       157.521011       243.488388               0.      -14.4487591
               30                4       159.591568       240.691010               0.      -6.56249237
               31                1       155.512741       261.850281               0.      -70.4976807
               31                2       147.167969       214.296051               0.      -63.0077400
               31                3       202.585129       263.077942               0.      -80.1204834
               31                4       202.088730       219.212006               0.      -74.5003357
               32                1       162.027496       209.831940               0.      -27.6610184
               32                2       170.020920       207.831039               0.      -13.6448174
               32                3       195.119888       216.401154               0.      -26.4817982
               32                4       203.848846       214.085358               0.      -14.3277702
               33                1       215.527252       169.439651               0.      -23.9065590
               33                2       252.848801       181.941757               0.      -23.1800079
               33                3       198.249954       167.166992               0.      -43.8026390
               33                4       235.979919       179.745163               0.      -41.8302002
               34                1       255.520203       109.935371               0.      -34.0342026
               34                2       307.714447       137.450119               0.      -31.2894535
               34                3       226.005402       93.4706345               0.      -61.5027313
               34                4       281.170319       122.611717               0.      -57.5870628
               35                1       293.323090       35.4119759               0.      -38.8427315
               35                2       346.950409       66.7158737               0.      -37.7700996
               35                3       270.160736       23.3285160               0.      -62.8119316
               35                4       329.995972       58.3283958               0.      -62.1698265
               36                1       200.614227       180.170120               0.      -102.347549
               36                2       272.529327       211.196274               0.      -101.916336
               36                3       159.201767       179.967117               0.      -125.173798
               36                4       229.266556       212.424072               0.      -127.263046
               37                1       269.228912       144.536102               0.      -122.321693
               37                2       316.404053       169.604279               0.      -123.821358
               37                3       236.978714       144.110977               0.      -140.039597
               37                4       283.498566       169.722778               0.      -142.948288
               38                1       309.630463       91.7559814               0.      -136.871857
               38                2       368.451141       124.500847               0.      -141.609955
               38                3       271.603943       90.1488342               0.      -159.209473
               38                4       329.680359       123.931244               0.      -166.006531
               39                1       204.746490       326.963043               0.       210.043793
               39                2       227.015610       286.400818               0.       220.973099
               39                3       172.034149       280.048157               0.       199.286713
               39                4       192.463654       244.088150               0.       209.165512
               40                1       218.638092       295.530457               0.       179.774872
               40                2       226.150711       266.518463               0.       187.230240
               40                3       203.657150       271.146576               0.       176.197449
               40                4       207.889496       241.814453               0.       182.136887
               41                1       224.112183       234.335205               0.       178.490952
               41                2       236.519302       237.716003               0.       179.325241
               41                3       254.121964       254.248657               0.       169.789169
               41                4       268.115234       259.488770               0.       169.337418
               42                1       233.563004       218.956604               0.       188.500366
               42                2       262.924286       240.096024               0.       195.307358
               42                3       264.129272       216.029282               0.       179.766495
               42                4       295.333252       235.776489               0.       185.194656
               43                1       244.017563       205.238724               0.       219.353302
               43                2       296.485016       247.630630               0.       234.634583
               43                3       283.418304       186.973129               0.       207.581726
               43                4       342.228882       229.218826               0.       222.203003
               44                1       329.339630       124.149559               0.       166.222031
               44                2       368.479950       125.728874               0.       141.732040
               44                3       271.081573       90.3507462               0.       159.431107
               44                4       309.287903       92.7978134               0.       137.003647
               45                1       330.034302       58.3754768               0.       62.4049644
               45                2       347.055084       66.7881699               0.       37.7936783
               45                3       269.877106       23.2220097               0.       62.9216309
               45                4       292.913239       35.2083549               0.       38.8371201
               46                1       283.438721       170.073425               0.       143.079041
               46                2       315.840271       168.857452               0.       124.044937
               46                3       237.501709       144.698349               0.       140.134415
               46                4       269.506348       144.215759               0.       122.520638
               47                1       281.322845       123.189209               0.       57.6530037
               47                2       307.618500       137.536407               0.       31.3425503
               47                3       226.059845       94.0115280               0.       61.6199989
               47                4       255.868393       110.259163               0.       34.0113869
               48                1       229.700317       212.098816               0.       127.356262
               48                2       273.168274       211.065704               0.       102.013664
               48                3       159.634583       179.620453               0.       125.290321
               48                4       201.017868       179.886932               0.       102.455643
               49                1       235.884109       179.315414               0.       41.8309097
               49                2       253.084427       181.917465               0.       23.1810760
               49                3       198.203705       166.728073               0.       43.8780060
               49                4       215.779236       169.382813               0.       23.9818363
               50                1       204.167587       214.101532               0.       14.3093138
               50                2       170.164566       207.795166               0.       13.6834641
               50                3       195.209930       216.217896               0.       26.5088520
               50                4       161.985291       209.597610               0.       27.7459145
               51                1       159.685089       240.712067               0.       6.56382751
               51                2       128.490540       233.172226               0.       4.86219931
               51                3       157.569077       243.495514               0.       14.4546423
               51                4       128.936462       236.545883               0.       13.9212275
               52                1       202.402191       219.152649               0.       74.5918045
               52                2       147.253067       214.100128               0.       63.0880966
               52                3       202.915070       262.998230               0.       80.2514038
               52                4       155.599869       261.665009               0.       70.6117554
               53                1       138.711349       241.550720               0.       32.2275124
               53                2       126.469872       242.758072               0.       21.9607201
               53                3       146.425171       261.326019               0.       32.6924934
               53                4       136.135452       263.513184               0.       23.7360153
               54                1       129.566833       275.424561               0.       25.2778740
               54                2       145.806870       307.673248               0.       19.2500153
               54                3       96.0899277       253.331848               0.       44.1667290
               54                4       113.201019       286.279694               0.       37.4753952
               55                1       139.131088       327.259186               0.       13.9918041
               55                2       162.970947       374.910248               0.      -2.78873515
               55                3       22.7697220       264.354553               0.       45.4750824
               55                4       51.6759453       320.613831               0.       24.9574013
               56                1       111.845596       255.139648               0.       97.7843552
               56                2       151.869293       329.029083               0.       99.6697617
               56                3       123.663818       219.079010               0.       126.337151
               56                4       162.121353       290.085266               0.       129.483902
               57                1       56.4759483       305.076477               0.       126.043762
               57                2       88.8423233       359.017639               0.       131.525269
               57                3       81.9152145       280.858643               0.       147.930878
               57                4       115.615669       333.967163               0.       154.650879
               58                1       228.708923       342.184509               0.       222.312790
               58                2       247.824234       296.599731               0.       234.790604
               58                3       186.325043       283.144043               0.       207.623962
               58                4       205.542969       244.368683               0.       219.537094
               59                1       235.818146       295.603424               0.       185.104355
               59                2       240.406937       263.394409               0.       195.286499
               59                3       215.937302       264.223114               0.       179.643265
               59                4       218.783997       233.358154               0.       188.342361
               60                1       259.659271       267.786957               0.       169.197510
               60                2       237.357697       236.081375               0.       179.220169
               60                3       254.632080       254.071823               0.       169.725327
               60                4       234.308502       224.063934               0.       178.475845
               61                1       241.837128       207.824783               0.       182.163116
               61                2       266.617401       226.180756               0.       187.279037
               61                3       271.127655       203.301819               0.       176.221024
               61                4       295.621613       218.350433               0.       179.819290
               62                1       244.231232       192.531235               0.       209.215698
               62                2       286.495697       227.062531               0.       221.010178
               62                3       280.085327       171.959152               0.       199.349289
               62                4       326.989960       204.654053               0.       210.099274
               63                1       334.009644       115.661774               0.       154.624908
               63                2       359.009949       88.7172928               0.       131.498535
               63                3       280.852875       81.9470139               0.       147.903687
               63                4       305.040741       56.3439484               0.       126.009560
               64                1       320.644104       51.7509346               0.       24.9093647
               64                2       374.905579       162.986588               0.      -2.81625628
               64                3       264.380829       22.8031902               0.       45.4380531
               64                4       327.277924       139.151230               0.       13.9608107
               65                1       290.196503       162.121689               0.       129.362000
               65                2       329.105621       151.758362               0.       99.5840836
               65                3       219.122238       123.663376               0.       126.247269
               65                4       255.242508       111.755676               0.       97.6999207
               66                1       286.277527       113.134987               0.       37.4415779
               66                2       307.695587       145.803131               0.       19.2230968
               66                3       253.323120       96.0113754               0.       44.1548653
               66                4       275.454987       129.564926               0.       25.2661304
               67                1       263.545654       136.142227               0.       23.7299995
               67                2       242.771744       126.468323               0.       21.9580460
               67                3       261.341736       146.405167               0.       32.6820793
               67                4       241.542175       138.684113               0.       32.2241135
               68                1       236.549026       128.927643               0.       13.9174986
               68                2       233.165634       128.463989               0.       4.86272955
               68                3       243.488388       157.521011               0.       14.4487591
               68                4       240.691010       159.591568               0.       6.56249237
               69                1       261.850281       155.512741               0.       70.4976807
               69                2       214.296051       147.167969               0.       63.0077400
               69                3       263.077942       202.585129               0.       80.1204834
               69                4       219.212006       202.088730               0.       74.5003357
               70                1       209.831940       162.027496               0.       27.6610184
               70                2       207.831039       170.020920               0.       13.6448174
               70                3       216.401154       195.119888               0.       26.4817982
               70                4       214.085358       203.848846               0.       14.3277702
               71                1       169.439651       215.527252               0.       23.9065590
               71                2       181.941757       252.848801               0.       23.1800079
               71                3       167.166992       198.249954               0.       43.8026390
               71                4       179.745163       235.979919               0.       41.8302002
               72                1       109.935371       255.520203               0.       34.0342026
               72                2       137.450119       307.714447               0.       31.2894535
               72                3       93.4706345       226.005402               0.       61.5027313
               72                4       122.611717       281.170319               0.       57.5870628
               73                1       35.4119759       293.323090               0.       38.8427315
               73                2       66.7158737       346.950409               0.       37.7700996
               73                3       23.3285160       270.160736               0.       62.8119316
               73                4       58.3283958       329.995972               0.       62.1698265
               74                1       180.170120       200.614227               0.       102.347549
               74                2       211.196274       272.529327               0.       101.916336
               74                3       179.967117       159.201767               0.       125.173798
               74                4       212.424072       229.266556               0.       127.263046
               75                1       144.536102       269.228912               0.       122.321693
               75                2       169.604279       316.404053               0.       123.821358
               75                3       144.110977       236.978714               0.       140.039597
               75                4       169.722778       283.498566               0.       142.948288
               76                1       91.7559814       309.630463               0.       136.871857
               76                2       124.500847       368.451141               0.       141.609955
               76                3       90.1488342       271.603943               0.       159.209473
               76                4       123.931244       329.680359               0.       166.006531
               77                1       342.184509       228.708923               0.      -222.312790
               77                2       296.599731       247.824234               0.      -234.790604
               77                3       283.144043       186.325043               0.      -207.623962
               77                4       244.368683       205.542969               0.      -219.537094
               78                1       295.603424       235.818146               0.      -185.104355
               78                2       263.394409       240.406937               0.      -195.286499
               78                3       264.223114       215.937302               0.      -179.643265
               78                4       233.358154       218.783997               0.      -188.342361
               79                1       267.786957       259.659271               0.      -169.197510
               79                2       236.081375       237.357697               0.      -179.220169
               79                3       254.071823       254.632080               0.      -169.725327
               79                4       224.063934       234.308502               0.      -178.475845
               80                1       207.824783       241.837128               0.      -182.163116
               80                2       226.180756       266.617401               0.      -187.279037
               80                3       203.301819       271.127655               0.      -176.221024
               80                4       218.350433       295.621613               0.      -179.819290
               81                1       192.531235       244.231232               0.      -209.215698
               81                2       227.062531       286.495697               0.      -221.010178
               81                3       171.959152       280.085327               0.      -199.349289
               81                4       204.654053       326.989960               0.      -210.099274
               82                1       115.661774       334.009644               0.      -154.624908
               82                2       88.7172928       359.009949               0.      -131.498535
               82                3       81.9470139       280.852875               0.      -147.903687
               82                4       56.3439484       305.040741               0.      -126.009560
               83                1       51.7509346       320.644104               0.      -24.9093647
               83                2       162.986588       374.905579               0.       2.81625628
               83                3       22.8031902       264.380829               0.      -45.4380531
               83                4       139.151230       327.277924               0.      -13.9608107
               84                1       162.121689       290.196503               0.      -129.362000
               84                2       151.758362       329.105621               0.      -99.5840836
               84                3       123.663376       219.122238               0.      -126.247269
               84                4       111.755676       255.242508               0.      -97.6999207
               85                1       113.134987       286.277527               0.      -37.4415779
               85                2       145.803131       307.695587               0.      -19.2230968
               85                3       96.0113754       253.323120               0.      -44.1548653
               85                4       129.564926       275.454987               0.      -25.2661304
               86                1       136.142227       263.545654               0.      -23.7299995
               86                2       126.468323       242.771744               0.      -21.9580460
               86                3       146.405167       261.341736               0.      -32.6820793
               86                4       138.684113       241.542175               0.      -32.2241135
               87                1       128.927643       236.549026               0.      -13.9174986
               87                2       128.463989       233.165634               0.      -4.86272955
               87                3       157.521011       243.488388               0.      -14.4487591
               87                4       159.591568       240.691010               0.      -6.56249237
               88                1       155.512741       261.850281               0.      -70.4976807
               88                2       147.167969       214.296051               0.      -63.0077400
               88                3       202.585129       263.077942               0.      -80.1204834
               88                4       202.088730       219.212006               0.      -74.5003357
               89                1       162.027496       209.831940               0.      -27.6610184
               89                2       170.020920       207.831039               0.      -13.6448174
               89                3       195.119888       216.401154               0.      -26.4817982
               89                4       203.848846       214.085358               0.      -14.3277702
               90                1       215.527252       169.439651               0.      -23.9065590
               90                2       252.848801       181.941757               0.      -23.1800079
               90                3       198.249954       167.166992               0.      -43.8026390
               90                4       235.979919       179.745163               0.      -41.8302002
               91                1       255.520203       109.935371               0.      -34.0342026
               91                2       307.714447       137.450119               0.      -31.2894535
               91                3       226.005402       93.4706345               0.      -61.5027313
               91                4       281.170319       122.611717               0.      -57.5870628
               92                1       293.323090       35.4119759               0.      -38.8427315
               92                2       346.950409       66.7158737               0.      -37.7700996
               92                3       270.160736       23.3285160               0.      -62.8119316
               92                4       329.995972       58.3283958               0.      -62.1698265
               93                1       200.614227       180.170120               0.      -102.347549
               93                2       272.529327       211.196274               0.      -101.916336
               93                3       159.201767       179.967117               0.      -125.173798
               93                4       229.266556       212.424072               0.      -127.263046
               94                1       269.228912       144.536102               0.      -122.321693
               94                2       316.404053       169.604279               0.      -123.821358
               94                3       236.978714       144.110977               0.      -140.039597
               94                4       283.498566       169.722778               0.      -142.948288
               95                1       309.630463       91.7559814               0.      -136.871857
               95                2       368.451141       124.500847               0.      -141.609955
               95                3       271.603943       90.1488342               0.      -159.209473
               95                4       329.680359       123.931244               0.      -166.006531
               96                1       228.708923       342.184509               0.       222.312790
               96                2       247.824234       296.599731               0.       234.790604
               96                3       186.325043       283.144043               0.       207.623962
               96                4       205.542969       244.368683               0.       219.537094
               97                1       235.818146       295.603424               0.       185.104355
               97                2       240.406937       263.394409               0.       195.286499
               97                3       215.937302       264.223114               0.       179.643265
               97                4       218.783997       233.358154               0.       188.342361
               98                1       259.659271       267.786957               0.       169.197510
               98                2       237.357697       236.081375               0.       179.220169
               98                3       254.632080       254.071823               0.       169.725327
               98                4       234.308502       224.063934               0.       178.475845
               99                1       241.837128       207.824783               0.       182.163116
               99                2       266.617401       226.180756               0.       187.279037
               99                3       271.127655       203.301819               0.       176.221024
               99                4       295.621613       218.350433               0.       179.819290
              100                1       244.231232       192.531235               0.       209.215698
              100                2       286.495697       227.062531               0.       221.010178
              100                3       280.085327       171.959152               0.       199.349289
              100                4       326.989960       204.654053               0.       210.099274
              101                1       334.009644       115.661774               0.       154.624908
              101                2       359.009949       88.7172928               0.       131.498535
              101                3       280.852875       81.9470139               0.       147.903687
              101                4       305.040741       56.3439484               0.       126.009560
              102                1       320.644104       51.7509346               0.       24.9093647
              102                2       374.905579       162.986588               0.      -2.81625628
              102                3       264.380829       22.8031902               0.       45.4380531
              102                4       327.277924       139.151230               0.       13.9608107
              103                1       290.196503       162.121689               0.       129.362000
              103                2       329.105621       151.758362               0.       99.5840836
              103                3       219.122238       123.663376               0.       126.247269
              103                4       255.242508       111.755676               0.       97.6999207
              104                1       286.277527       113.134987               0.       37.4415779
              104                2       307.695587       145.803131               0.       19.2230968
              104                3       253.323120       96.0113754               0.       44.1548653
              104                4       275.454987       129.564926               0.       25.2661304
              105                1       263.545654       136.142227               0.       23.7299995
              105                2       242.771744       126.468323               0.       21.9580460
              105                3       261.341736       146.405167               0.       32.6820793
              105                4       241.542175       138.684113               0.       32.2241135
              106                1       236.549026       128.927643               0.       13.9174986
              106                2       233.165634       128.463989               0.       4.86272955
              106                3       243.488388       157.521011               0.       14.4487591
              106                4       240.691010       159.591568               0.       6.56249237
              107                1       261.850281       155.512741               0.       70.4976807
              107                2       214.296051       147.167969               0.       63.0077400
              107                3       263.077942       202.585129               0.       80.1204834
              107                4       219.212006       202.088730               0.       74.5003357
              108                1       209.831940       162.027496               0.       27.6610184
              108                2       207.831039       170.020920               0.       13.6448174
              108                3       216.401154       195.119888               0.       26.4817982
              108                4       214.085358       203.848846               0.       14.3277702
              109                1       169.439651       215.527252               0.       23.9065590
              109                2       181.941757       252.848801               0.       23.1800079
              109                3       167.166992       198.249954               0.       43.8026390
              109                4       179.745163       235.979919               0.       41.8302002
              110                1       109.935371       255.520203               0.       34.0342026
              110                2       137.450119       307.714447               0.       31.2894535
              110                3       93.4706345       226.005402               0.       61.5027313
              110                4       122.611717       281.170319               0.       57.5870628
              111                1       35.4119759       293.323090               0.       38.8427315
              111                2       66.7158737       346.950409               0.       37.7700996
              111                3       23.3285160       270.160736               0.       62.8119316
              111                4       58.3283958       329.995972               0.       62.1698265
              112                1       180.170120       200.614227               0.       102.347549
              112                2       211.196274       272.529327               0.       101.916336
              112                3       179.967117       159.201767               0.       125.173798
              112                4       212.424072       229.266556               0.       127.263046
              113                1       144.536102       269.228912               0.       122.321693
              113                2       169.604279       316.404053               0.       123.821358
              113                3       144.110977       236.978714               0.       140.039597
              113                4       169.722778       283.498566               0.       142.948288
              114                1       91.7559814       309.630463               0.       136.871857
              114                2       124.500847       368.451141               0.       141.609955
              114                3       90.1488342       271.603943               0.       159.209473
              114                4       123.931244       329.680359               0.       166.006531
              115                1       204.746490       326.963043               0.       210.043793
              115                2       227.015610       286.400818               0.       220.973099
              115                3       172.034149       280.048157               0.       199.286713
              115                4       192.463654       244.088150               0.       209.165512
              116                1       218.638092       295.530457               0.       179.774872
              116                2       226.150711       266.518463               0.       187.230240
              116                3       203.657150       271.146576               0.       176.197449
              116                4       207.889496       241.814453               0.       182.136887
              117                1       224.112183       234.335205               0.       178.490952
              117                2       236.519302       237.716003               0.       179.325241
              117                3       254.121964       254.248657               0.       169.789169
              117                4       268.115234       259.488770               0.       169.337418
              118                1       233.563004       218.956604               0.       188.500366
              118                2       262.924286       240.096024               0.       195.307358
              118                3       264.129272       216.029282               0.       179.766495
              118                4       295.333252       235.776489               0.       185.194656
              119                1       244.017563       205.238724               0.       219.353302
              119                2       296.485016       247.630630               0.       234.634583
              119                3       283.418304       186.973129               0.       207.581726
              119                4       342.228882       229.218826               0.       222.203003
              120                1       329.339630       124.149559               0.       166.222031
              120                2       368.479950       125.728874               0.       141.732040
              120                3       271.081573       90.3507462               0.       159.431107
              120                4       309.287903       92.7978134               0.       137.003647
              121                1       330.034302       58.3754768               0.       62.4049644
              121                2       347.055084       66.7881699               0.       37.7936783
              121                3       269.877106       23.2220097               0.       62.9216309
              121                4       292.913239       35.2083549               0.       38.8371201
              122                1       283.438721       170.073425               0.       143.079041
              122                2       315.840271       168.857452               0.       124.044937
              122                3       237.501709       144.698349               0.       140.134415
              122                4       269.506348       144.215759               0.       122.520638
              123                1       281.322845       123.189209               0.       57.6530037
              123                2       307.618500       137.536407               0.       31.3425503
              123                3       226.059845       94.0115280               0.       61.6199989
              123                4       255.868393       110.259163               0.       34.0113869
              124                1       229.700317       212.098816               0.       127.356262
              124                2       273.168274       211.065704               0.       102.013664
              124                3       159.634583       179.620453               0.       125.290321
              124                4       201.017868       179.886932               0.       102.455643
              125                1       235.884109       179.315414               0.       41.8309097
              125                2       253.084427       181.917465               0.       23.1810760
              125                3       198.203705       166.728073               0.       43.8780060
              125                4       215.779236       169.382813               0.       23.9818363
              126                1       204.167587       214.101532               0.       14.3093138
              126                2       170.164566       207.795166               0.       13.6834641
              126                3       195.209930       216.217896               0.       26.5088520
              126                4       161.985291       209.597610               0.       27.7459145
              127                1       159.685089       240.712067               0.       6.56382751
              127                2       128.490540       233.172226               0.       4.86219931
              127                3       157.569077       243.495514               0.       14.4546423
              127                4       128.936462       236.545883               0.       13.9212275
              128                1       202.402191       219.152649               0.       74.5918045
              128                2       147.253067       214.100128               0.       63.0880966
              128                3       202.915070       262.998230               0.       80.2514038
              128                4       155.599869       261.665009               0.       70.6117554
              129                1       138.711349       241.550720               0.       32.2275124
              129                2       126.469872       242.758072               0.       21.9607201
              129                3       146.425171       261.326019               0.       32.6924934
              129                4       136.135452       263.513184               0.       23.7360153
              130                1       129.566833       275.424561               0.       25.2778740
              130                2       145.806870       307.673248               0.       19.2500153
              130                3       96.0899277       253.331848               0.       44.1667290
              130                4       113.201019       286.279694               0.       37.4753952
              131                1       139.131088       327.259186               0.       13.9918041
              131                2       162.970947       374.910248               0.      -2.78873515
              131                3       22.7697220       264.354553               0.       45.4750824
              131                4       51.6759453       320.613831               0.       24.9574013
              132                1       111.845596       255.139648               0.       97.7843552
              132                2       151.869293       329.029083               0.       99.6697617
              132                3       123.663818       219.079010               0.       126.337151
              132                4       162.121353       290.085266               0.       129.483902
              133                1       56.4759483       305.076477               0.       126.043762
              133                2       88.8423233       359.017639               0.       131.525269
              133                3       81.9152145       280.858643               0.       147.930878
              133                4       115.615669       333.967163               0.       154.650879
              134                1       326.963043       204.746490               0.      -210.043793
              134                2       286.400818       227.015610               0.      -220.973099
              134                3       280.048157       172.034149               0.      -199.286713
              134                4       244.088150       192.463654               0.      -209.165512
              135                1       295.530457       218.638092               0.      -179.774872
              135                2       266.518463       226.150711               0.      -187.230240
              135                3       271.146576       203.657150               0.      -176.197449
              135                4       241.814453       207.889496               0.      -182.136887
              136                1       234.335205       224.112183               0.      -178.490952
              136                2       237.716003       236.519302               0.      -179.325241
              136                3       254.248657       254.121964               0.      -169.789169
              136                4       259.488770       268.115234               0.      -169.337418
              137                1       218.956604       233.563004               0.      -188.500366
              137                2       240.096024       262.924286               0.      -195.307358
              137                3       216.029282       264.129272               0.      -179.766495
              137                4       235.776489       295.333252               0.      -185.194656
              138                1       205.238724       244.017563               0.      -219.353302
              138                2       247.630630       296.485016               0.      -234.634583
              138                3       186.973129       283.418304               0.      -207.581726
              138                4       229.218826       342.228882               0.      -222.203003
              139                1       124.149559       329.339630               0.      -166.222031
              139                2       125.728874       368.479950               0.      -141.732040
              139                3       90.3507462       271.081573               0.      -159.431107
              139                4       92.7978134       309.287903               0.      -137.003647
              140                1       58.3754768       330.034302               0.      -62.4049644
              140                2       66.7881699       347.055084               0.      -37.7936783
              140                3       23.2220097       269.877106               0.      -62.9216309
              140                4       35.2083549       292.913239               0.      -38.8371201
              141                1       170.073425       283.438721               0.      -143.079041
              141                2       168.857452       315.840271               0.      -124.044937
              141                3       144.698349       237.501709               0.      -140.134415
              141                4       144.215759       269.506348               0.      -122.520638
              142                1       123.189209       281.322845               0.      -57.6530037
              142                2       137.536407       307.618500               0.      -31.3425503
              142                3       94.0115280       226.059845               0.      -61.6199989
              142                4       110.259163       255.868393               0.      -34.0113869
              143                1       212.098816       229.700317               0.      -127.356262
              143                2       211.065704       273.168274               0.      -102.013664
              143                3       179.620453       159.634583               0.      -125.290321
              143                4       179.886932       201.017868               0.      -102.455643
              144                1       179.315414       235.884109               0.      -41.8309097
              144                2       181.917465       253.084427               0.      -23.1810760
              144                3       166.728073       198.203705               0.      -43.8780060
              144                4       169.382813       215.779236               0.      -23.9818363
              145                1       214.101532       204.167587               0.      -14.3093138
              145                2       207.795166       170.164566               0.      -13.6834641
              145                3       216.217896       195.209930               0.      -26.5088520
              145                4       209.597610       161.985291               0.      -27.7459145
              146                1       240.712067       159.685089               0.      -6.56382751
              146                2       233.172226       128.490540               0.      -4.86219931
              146                3       243.495514       157.569077               0.      -14.4546423
              146                4       236.545883       128.936462               0.      -13.9212275
              147                1       219.152649       202.402191               0.      -74.5918045
              147                2       214.100128       147.253067               0.      -63.0880966
              147                3       262.998230       202.915070               0.      -80.2514038
              147                4       261.665009       155.599869               0.      -70.6117554
              148                1       241.550720       138.711349               0.      -32.2275124
              148                2       242.758072       126.469872               0.      -21.9607201
              148                3       261.326019       146.425171               0.      -32.6924934
              148                4       263.513184       136.135452               0.      -23.7360153
              149                1       275.424561       129.566833               0.      -25.2778740
              149                2       307.673248       145.806870               0.      -19.2500153
              149                3       253.331848       96.0899277               0.      -44.1667290
              149                4       286.279694       113.201019               0.      -37.4753952
              150                1       327.259186       139.131088               0.      -13.9918041
              150                2       374.910248       162.970947               0.       2.78873515
              150                3       264.354553       22.7697220               0.      -45.4750824
              150                4       320.613831       51.6759453               0.      -24.9574013
              151                1       255.139648       111.845596               0.      -97.7843552
              151                2       329.029083       151.869293               0.      -99.6697617
              151                3       219.079010       123.663818               0.      -126.337151
              151                4       290.085266       162.121353               0.      -129.483902
              152                1       305.076477       56.4759483               0.      -126.043762
              152                2       359.017639       88.8423233               0.      -131.525269
              152                3       280.858643       81.9152145               0.      -147.930878
              152                4       333.967163       115.615669               0.      -154.650879


********************************************************************************
Field Output Report, written Mon May 12 10:43:05 2025

Source 1
---------

   ODB: C:/lnms/Vid/CrossHoleSym2/CrossHoleSym2brezU.odb
   Step: loading
   Frame: Increment      9: Step Time =   0.9000

Loc 1 : Integration point values from source 1

Output sorted by column "Element Label".

Field Output reported at integration points for part: SPECIMEN-1

          Element              Int            S.S11            S.S22            S.S33            S.S12
            Label               Pt           @Loc 1           @Loc 1           @Loc 1           @Loc 1
-------------------------------------------------------------------------------------------------------
                1                1       353.759094       222.057571               0.      -228.561859
                1                2       308.868713       244.720047               0.      -240.710464
                1                3       303.794861       187.726410               0.      -216.499298
                1                4       264.038452       208.459641               0.      -227.467911
                2                1       319.530243       235.194077               0.      -195.861374
                2                2       287.169159       243.030380               0.      -204.209686
                2                3       292.939789       218.941803               0.      -191.735458
                2                4       260.327179       223.242172               0.      -198.365799
                3                1       251.286057       240.712463               0.      -194.640701
                3                2       255.453583       254.467133               0.      -195.567169
                3                3       272.623657       274.358521               0.      -185.192062
                3                4       278.635376       289.830444               0.      -184.726334
                4                1       235.159241       250.740662               0.      -205.665268
                4                2       258.011932       282.556122               0.      -213.333801
                4                3       232.708679       285.336761               0.      -195.816956
                4                4       254.107681       319.279510               0.      -201.932480
                5                1       222.593262       263.445190               0.      -238.709076
                5                2       267.069275       318.859955               0.      -255.767746
                5                3       204.410004       307.245789               0.      -225.653809
                5                4       248.752838       369.657959               0.      -241.972687
                6                1       131.587463       352.454163               0.      -180.575241
                6                2       135.881912       396.643341               0.      -153.497452
                6                3       96.0317078       289.730286               0.      -172.848465
                6                4       101.130951       332.840057               0.      -148.135620
                7                1       61.0062218       351.982544               0.      -67.7188568
                7                2       70.8542786       371.159607               0.      -40.3858376
                7                3       22.9197350       286.167419               0.      -68.3021240
                7                4       36.6970177       312.157135               0.      -41.5269203
                8                1       180.458557       302.830566               0.      -155.256805
                8                2       180.121140       339.427368               0.      -133.941147
                8                3       152.612228       252.155518               0.      -151.826202
                8                4       153.104065       288.408722               0.      -132.124130
                9                1       129.628204       298.520416               0.      -62.4766541
                9                2       145.722305       327.735779               0.      -33.5831108
                9                3       97.4015808       237.442551               0.      -66.8019104
                9                4       115.769440       270.902985               0.      -36.4632721
               10                1       225.764954       243.498123               0.      -138.054184
               10                2       224.047485       292.966064               0.      -109.903038
               10                3       189.045700       164.617416               0.      -135.651138
               10                4       189.112488       212.389175               0.      -110.431511
               11                1       189.527542       249.825348               0.      -44.7727356
               11                2       192.607803       268.515869               0.      -24.7264061
               11                3       175.193970       208.464478               0.      -46.9109688
               11                4       178.327972       227.552963               0.      -25.5453682
               12                1       226.475098       215.961456               0.      -15.2045498
               12                2       218.875107       178.972168               0.      -14.4168043
               12                3       228.848450       206.373596               0.      -28.1309853
               12                4       221.017242       170.309067               0.      -29.3110523
               13                1       254.230759       168.437927               0.      -6.80849171
               13                2       245.627960       135.303162               0.      -5.04701138
               13                3       257.355591       166.372360               0.      -15.0488281
               13                4       249.465759       135.942032               0.      -14.4937115
               14                1       231.251205       215.219101               0.      -80.2560501
               14                2       225.905396       154.801056               0.      -67.4561539
               14                3       279.922272       215.904785               0.      -86.2553864
               14                4       278.523743       164.046936               0.      -75.4361954
               15                1       255.140259       145.828537               0.      -34.1714973
               15                2       256.377441       133.354721               0.      -23.0237370
               15                3       276.950439       154.530289               0.      -34.5330925
               15                4       279.284607       144.087952               0.      -24.7886734
               16                1       292.262115       137.088882               0.      -26.4020748
               16                2       327.316254       154.744370               0.      -19.8882484
               16                3       267.796753       99.8324661               0.      -46.9034691
               16                4       303.725586       118.505295               0.      -39.6566353
               17                1       348.479126       147.916946               0.      -14.3875103
               17                2       399.962280       173.725891               0.       3.29093218
               17                3       279.391357       21.6264915               0.      -48.7118187
               17                4       340.678772       53.3664398               0.      -26.9273491
               18                1       271.132782       117.947235               0.      -105.102112
               18                2       352.911560       162.037140               0.      -107.017838
               18                3       229.137299       129.674774               0.      -137.197586
               18                4       308.352173       172.237396               0.      -140.626480
               19                1       328.189301       61.3014603               0.      -135.430847
               19                2       387.175415       95.9636230               0.      -141.250824
               19                3       299.331207       86.6056442               0.      -160.232956
               19                4       357.577728       122.677361               0.      -167.557434
               20                1       369.604675       248.184769               0.      -242.093094
               20                2       318.972778       267.264465               0.      -255.938751
               20                3       306.947052       203.698151               0.      -225.703735
               20                4       263.806793       222.902985               0.      -238.916611
               21                1       319.576019       254.168549               0.      -201.832611
               21                2       283.063904       258.364105               0.      -213.313431
               21                3       285.438080       232.622665               0.      -195.678177
               21                4       250.511780       234.985138               0.      -205.488266
               22                1       289.468445       278.815796               0.      -184.574005
               22                2       253.984985       255.054367               0.      -195.449326
               22                3       274.299652       273.034302               0.      -185.125412
               22                4       240.655472       251.247604               0.      -194.624847
               23                1       223.170395       260.340454               0.      -198.395615
               23                2       243.065552       287.271912               0.      -204.264191
               23                3       218.541870       292.917542               0.      -191.760071
               23                4       234.869308       319.633972               0.      -195.908768
               24                1       208.535019       264.192291               0.      -227.524597
               24                2       244.778427       308.975800               0.      -240.752274
               24                3       187.636032       303.836426               0.      -216.569443
               24                4       221.952072       353.794098               0.      -228.623962
               25                1       122.737915       357.624573               0.      -167.528778
               25                2       95.8269119       387.165741               0.      -141.220688
               25                3       86.6478119       299.322357               0.      -160.204041
               25                4       61.1548996       328.147125               0.      -135.393280
               26                1       53.4501495       340.713196               0.      -26.8756809
               26                2       173.743179       399.957489               0.       3.32061887
               26                3       21.6644783       279.420746               0.      -48.6721039
               26                4       147.938980       348.499390               0.      -14.3540087
               27                1       172.255920       308.474823               0.      -140.492416
               27                2       161.918869       352.992432               0.      -106.923470
               27                3       129.689758       229.178177               0.      -137.100876
               27                4       117.850464       271.240967               0.      -105.010406
               28                1       118.431328       303.721741               0.      -39.6203651
               28                2       154.739761       327.339966               0.      -19.8591595
               28                3       99.7442703       267.785156               0.      -46.8913002
               28                4       137.086166       292.294525               0.      -26.3896389
               29                1       144.096024       279.319519               0.      -24.7822323
               29                2       133.353806       256.392059               0.      -23.0206089
               29                3       154.510818       276.966766               0.      -34.5217476
               29                4       145.801010       255.130219               0.      -34.1675339
               30                1       135.932343       249.468811               0.      -14.4894791
               30                2       135.274628       245.620407               0.      -5.04744816
               30                3       166.320068       257.346741               0.      -15.0422735
               30                4       168.337158       254.206192               0.      -6.80689430
               31                1       163.955322       278.722168               0.      -75.3101273
               31                2       154.711838       226.117477               0.      -67.3680725
               31                3       215.545441       280.004547               0.      -86.1111374
               31                4       214.877625       231.310867               0.      -80.1566467
               32                1       170.360992       221.271469               0.      -29.2188511
               32                2       178.818283       218.910599               0.      -14.3740892
               32                3       206.279205       229.044861               0.      -28.1000042
               32                4       215.614166       226.450790               0.      -15.2220201
               33                1       227.276367       178.383194               0.      -25.4637909
               33                2       268.258911       192.631668               0.      -24.7244873
               33                3       208.522186       175.670105               0.      -46.8280411
               33                4       249.936981       189.996399               0.      -44.7705078
               34                1       270.519104       115.408546               0.      -36.4846382
               34                2       327.835419       145.619431               0.      -33.5219917
               34                3       237.388321       96.7948074               0.      -66.6637878
               34                4       298.348785       128.976044               0.      -62.3969421
               35                1       312.598053       36.9137192               0.      -41.5348206
               35                2       371.056274       70.7936249               0.      -40.3627434
               35                3       286.471527       23.0579586               0.      -68.1999893
               35                4       351.960114       61.0066833               0.      -67.4768066
               36                1       211.950974       189.407745               0.      -110.314491
               36                2       292.273132       224.172974               0.      -109.795433
               36                3       164.140091       189.411850               0.      -135.522720
               36                4       243.027786       226.110352               0.      -137.950928
               37                1       288.095490       153.464584               0.      -131.909393
               37                2       340.031982       180.947067               0.      -133.706528
               37                3       251.573074       151.948212               0.      -151.721497
               37                4       302.882263       180.052094               0.      -155.119370
               38                1       333.204132       99.9829865               0.      -147.998184
               38                2       396.605988       134.542648               0.      -153.364914
               38                3       290.313721       95.8505173               0.      -172.604568
               38                4       352.844879       131.401611               0.      -180.331940
               39                1       222.057571       353.759094               0.       228.561859
               39                2       244.720047       308.868713               0.       240.710464
               39                3       187.726410       303.794861               0.       216.499298
               39                4       208.459641       264.038452               0.       227.467911
               40                1       235.194077       319.530243               0.       195.861374
               40                2       243.030380       287.169159               0.       204.209686
               40                3       218.941803       292.939789               0.       191.735458
               40                4       223.242172       260.327179               0.       198.365799
               41                1       240.712463       251.286057               0.       194.640701
               41                2       254.467133       255.453583               0.       195.567169
               41                3       274.358521       272.623657               0.       185.192062
               41                4       289.830444       278.635376               0.       184.726334
               42                1       250.740662       235.159241               0.       205.665268
               42                2       282.556122       258.011932               0.       213.333801
               42                3       285.336761       232.708679               0.       195.816956
               42                4       319.279510       254.107681               0.       201.932480
               43                1       263.445190       222.593262               0.       238.709076
               43                2       318.859955       267.069275               0.       255.767746
               43                3       307.245789       204.410004               0.       225.653809
               43                4       369.657959       248.752838               0.       241.972687
               44                1       352.454163       131.587463               0.       180.575241
               44                2       396.643341       135.881912               0.       153.497452
               44                3       289.730286       96.0317078               0.       172.848465
               44                4       332.840057       101.130951               0.       148.135620
               45                1       351.982544       61.0062218               0.       67.7188568
               45                2       371.159607       70.8542786               0.       40.3858376
               45                3       286.167419       22.9197350               0.       68.3021240
               45                4       312.157135       36.6970177               0.       41.5269203
               46                1       302.830566       180.458557               0.       155.256805
               46                2       339.427368       180.121140               0.       133.941147
               46                3       252.155518       152.612228               0.       151.826202
               46                4       288.408722       153.104065               0.       132.124130
               47                1       298.520416       129.628204               0.       62.4766541
               47                2       327.735779       145.722305               0.       33.5831108
               47                3       237.442551       97.4015808               0.       66.8019104
               47                4       270.902985       115.769440               0.       36.4632721
               48                1       243.498123       225.764954               0.       138.054184
               48                2       292.966064       224.047485               0.       109.903038
               48                3       164.617416       189.045700               0.       135.651138
               48                4       212.389175       189.112488               0.       110.431511
               49                1       249.825348       189.527542               0.       44.7727356
               49                2       268.515869       192.607803               0.       24.7264061
               49                3       208.464478       175.193970               0.       46.9109688
               49                4       227.552963       178.327972               0.       25.5453682
               50                1       215.961456       226.475098               0.       15.2045498
               50                2       178.972168       218.875107               0.       14.4168043
               50                3       206.373596       228.848450               0.       28.1309853
               50                4       170.309067       221.017242               0.       29.3110523
               51                1       168.437927       254.230759               0.       6.80849171
               51                2       135.303162       245.627960               0.       5.04701138
               51                3       166.372360       257.355591               0.       15.0488281
               51                4       135.942032       249.465759               0.       14.4937115
               52                1       215.219101       231.251205               0.       80.2560501
               52                2       154.801056       225.905396               0.       67.4561539
               52                3       215.904785       279.922272               0.       86.2553864
               52                4       164.046936       278.523743               0.       75.4361954
               53                1       145.828537       255.140259               0.       34.1714973
               53                2       133.354721       256.377441               0.       23.0237370
               53                3       154.530289       276.950439               0.       34.5330925
               53                4       144.087952       279.284607               0.       24.7886734
               54                1       137.088882       292.262115               0.       26.4020748
               54                2       154.744370       327.316254               0.       19.8882484
               54                3       99.8324661       267.796753               0.       46.9034691
               54                4       118.505295       303.725586               0.       39.6566353
               55                1       147.916946       348.479126               0.       14.3875103
               55                2       173.725891       399.962280               0.      -3.29093218
               55                3       21.6264915       279.391357               0.       48.7118187
               55                4       53.3664398       340.678772               0.       26.9273491
               56                1       117.947235       271.132782               0.       105.102112
               56                2       162.037140       352.911560               0.       107.017838
               56                3       129.674774       229.137299               0.       137.197586
               56                4       172.237396       308.352173               0.       140.626480
               57                1       61.3014603       328.189301               0.       135.430847
               57                2       95.9636230       387.175415               0.       141.250824
               57                3       86.6056442       299.331207               0.       160.232956
               57                4       122.677361       357.577728               0.       167.557434
               58                1       248.184769       369.604675               0.       242.093094
               58                2       267.264465       318.972778               0.       255.938751
               58                3       203.698151       306.947052               0.       225.703735
               58                4       222.902985       263.806793               0.       238.916611
               59                1       254.168549       319.576019               0.       201.832611
               59                2       258.364105       283.063904               0.       213.313431
               59                3       232.622665       285.438080               0.       195.678177
               59                4       234.985138       250.511780               0.       205.488266
               60                1       278.815796       289.468445               0.       184.574005
               60                2       255.054367       253.984985               0.       195.449326
               60                3       273.034302       274.299652               0.       185.125412
               60                4       251.247604       240.655472               0.       194.624847
               61                1       260.340454       223.170395               0.       198.395615
               61                2       287.271912       243.065552               0.       204.264191
               61                3       292.917542       218.541870               0.       191.760071
               61                4       319.633972       234.869308               0.       195.908768
               62                1       264.192291       208.535019               0.       227.524597
               62                2       308.975800       244.778427               0.       240.752274
               62                3       303.836426       187.636032               0.       216.569443
               62                4       353.794098       221.952072               0.       228.623962
               63                1       357.624573       122.737915               0.       167.528778
               63                2       387.165741       95.8269119               0.       141.220688
               63                3       299.322357       86.6478119               0.       160.204041
               63                4       328.147125       61.1548996               0.       135.393280
               64                1       340.713196       53.4501495               0.       26.8756809
               64                2       399.957489       173.743179               0.      -3.32061887
               64                3       279.420746       21.6644783               0.       48.6721039
               64                4       348.499390       147.938980               0.       14.3540087
               65                1       308.474823       172.255920               0.       140.492416
               65                2       352.992432       161.918869               0.       106.923470
               65                3       229.178177       129.689758               0.       137.100876
               65                4       271.240967       117.850464               0.       105.010406
               66                1       303.721741       118.431328               0.       39.6203651
               66                2       327.339966       154.739761               0.       19.8591595
               66                3       267.785156       99.7442703               0.       46.8913002
               66                4       292.294525       137.086166               0.       26.3896389
               67                1       279.319519       144.096024               0.       24.7822323
               67                2       256.392059       133.353806               0.       23.0206089
               67                3       276.966766       154.510818               0.       34.5217476
               67                4       255.130219       145.801010               0.       34.1675339
               68                1       249.468811       135.932343               0.       14.4894791
               68                2       245.620407       135.274628               0.       5.04744816
               68                3       257.346741       166.320068               0.       15.0422735
               68                4       254.206192       168.337158               0.       6.80689430
               69                1       278.722168       163.955322               0.       75.3101273
               69                2       226.117477       154.711838               0.       67.3680725
               69                3       280.004547       215.545441               0.       86.1111374
               69                4       231.310867       214.877625               0.       80.1566467
               70                1       221.271469       170.360992               0.       29.2188511
               70                2       218.910599       178.818283               0.       14.3740892
               70                3       229.044861       206.279205               0.       28.1000042
               70                4       226.450790       215.614166               0.       15.2220201
               71                1       178.383194       227.276367               0.       25.4637909
               71                2       192.631668       268.258911               0.       24.7244873
               71                3       175.670105       208.522186               0.       46.8280411
               71                4       189.996399       249.936981               0.       44.7705078
               72                1       115.408546       270.519104               0.       36.4846382
               72                2       145.619431       327.835419               0.       33.5219917
               72                3       96.7948074       237.388321               0.       66.6637878
               72                4       128.976044       298.348785               0.       62.3969421
               73                1       36.9137192       312.598053               0.       41.5348206
               73                2       70.7936249       371.056274               0.       40.3627434
               73                3       23.0579586       286.471527               0.       68.1999893
               73                4       61.0066833       351.960114               0.       67.4768066
               74                1       189.407745       211.950974               0.       110.314491
               74                2       224.172974       292.273132               0.       109.795433
               74                3       189.411850       164.140091               0.       135.522720
               74                4       226.110352       243.027786               0.       137.950928
               75                1       153.464584       288.095490               0.       131.909393
               75                2       180.947067       340.031982               0.       133.706528
               75                3       151.948212       251.573074               0.       151.721497
               75                4       180.052094       302.882263               0.       155.119370
               76                1       99.9829865       333.204132               0.       147.998184
               76                2       134.542648       396.605988               0.       153.364914
               76                3       95.8505173       290.313721               0.       172.604568
               76                4       131.401611       352.844879               0.       180.331940
               77                1       369.604675       248.184769               0.      -242.093094
               77                2       318.972778       267.264465               0.      -255.938751
               77                3       306.947052       203.698151               0.      -225.703735
               77                4       263.806793       222.902985               0.      -238.916611
               78                1       319.576019       254.168549               0.      -201.832611
               78                2       283.063904       258.364105               0.      -213.313431
               78                3       285.438080       232.622665               0.      -195.678177
               78                4       250.511780       234.985138               0.      -205.488266
               79                1       289.468445       278.815796               0.      -184.574005
               79                2       253.984985       255.054367               0.      -195.449326
               79                3       274.299652       273.034302               0.      -185.125412
               79                4       240.655472       251.247604               0.      -194.624847
               80                1       223.170395       260.340454               0.      -198.395615
               80                2       243.065552       287.271912               0.      -204.264191
               80                3       218.541870       292.917542               0.      -191.760071
               80                4       234.869308       319.633972               0.      -195.908768
               81                1       208.535019       264.192291               0.      -227.524597
               81                2       244.778427       308.975800               0.      -240.752274
               81                3       187.636032       303.836426               0.      -216.569443
               81                4       221.952072       353.794098               0.      -228.623962
               82                1       122.737915       357.624573               0.      -167.528778
               82                2       95.8269119       387.165741               0.      -141.220688
               82                3       86.6478119       299.322357               0.      -160.204041
               82                4       61.1548996       328.147125               0.      -135.393280
               83                1       53.4501495       340.713196               0.      -26.8756809
               83                2       173.743179       399.957489               0.       3.32061887
               83                3       21.6644783       279.420746               0.      -48.6721039
               83                4       147.938980       348.499390               0.      -14.3540087
               84                1       172.255920       308.474823               0.      -140.492416
               84                2       161.918869       352.992432               0.      -106.923470
               84                3       129.689758       229.178177               0.      -137.100876
               84                4       117.850464       271.240967               0.      -105.010406
               85                1       118.431328       303.721741               0.      -39.6203651
               85                2       154.739761       327.339966               0.      -19.8591595
               85                3       99.7442703       267.785156               0.      -46.8913002
               85                4       137.086166       292.294525               0.      -26.3896389
               86                1       144.096024       279.319519               0.      -24.7822323
               86                2       133.353806       256.392059               0.      -23.0206089
               86                3       154.510818       276.966766               0.      -34.5217476
               86                4       145.801010       255.130219               0.      -34.1675339
               87                1       135.932343       249.468811               0.      -14.4894791
               87                2       135.274628       245.620407               0.      -5.04744816
               87                3       166.320068       257.346741               0.      -15.0422735
               87                4       168.337158       254.206192               0.      -6.80689430
               88                1       163.955322       278.722168               0.      -75.3101273
               88                2       154.711838       226.117477               0.      -67.3680725
               88                3       215.545441       280.004547               0.      -86.1111374
               88                4       214.877625       231.310867               0.      -80.1566467
               89                1       170.360992       221.271469               0.      -29.2188511
               89                2       178.818283       218.910599               0.      -14.3740892
               89                3       206.279205       229.044861               0.      -28.1000042
               89                4       215.614166       226.450790               0.      -15.2220201
               90                1       227.276367       178.383194               0.      -25.4637909
               90                2       268.258911       192.631668               0.      -24.7244873
               90                3       208.522186       175.670105               0.      -46.8280411
               90                4       249.936981       189.996399               0.      -44.7705078
               91                1       270.519104       115.408546               0.      -36.4846382
               91                2       327.835419       145.619431               0.      -33.5219917
               91                3       237.388321       96.7948074               0.      -66.6637878
               91                4       298.348785       128.976044               0.      -62.3969421
               92                1       312.598053       36.9137192               0.      -41.5348206
               92                2       371.056274       70.7936249               0.      -40.3627434
               92                3       286.471527       23.0579586               0.      -68.1999893
               92                4       351.960114       61.0066833               0.      -67.4768066
               93                1       211.950974       189.407745               0.      -110.314491
               93                2       292.273132       224.172974               0.      -109.795433
               93                3       164.140091       189.411850               0.      -135.522720
               93                4       243.027786       226.110352               0.      -137.950928
               94                1       288.095490       153.464584               0.      -131.909393
               94                2       340.031982       180.947067               0.      -133.706528
               94                3       251.573074       151.948212               0.      -151.721497
               94                4       302.882263       180.052094               0.      -155.119370
               95                1       333.204132       99.9829865               0.      -147.998184
               95                2       396.605988       134.542648               0.      -153.364914
               95                3       290.313721       95.8505173               0.      -172.604568
               95                4       352.844879       131.401611               0.      -180.331940
               96                1       248.184769       369.604675               0.       242.093094
               96                2       267.264465       318.972778               0.       255.938751
               96                3       203.698151       306.947052               0.       225.703735
               96                4       222.902985       263.806793               0.       238.916611
               97                1       254.168549       319.576019               0.       201.832611
               97                2       258.364105       283.063904               0.       213.313431
               97                3       232.622665       285.438080               0.       195.678177
               97                4       234.985138       250.511780               0.       205.488266
               98                1       278.815796       289.468445               0.       184.574005
               98                2       255.054367       253.984985               0.       195.449326
               98                3       273.034302       274.299652               0.       185.125412
               98                4       251.247604       240.655472               0.       194.624847
               99                1       260.340454       223.170395               0.       198.395615
               99                2       287.271912       243.065552               0.       204.264191
               99                3       292.917542       218.541870               0.       191.760071
               99                4       319.633972       234.869308               0.       195.908768
              100                1       264.192291       208.535019               0.       227.524597
              100                2       308.975800       244.778427               0.       240.752274
              100                3       303.836426       187.636032               0.       216.569443
              100                4       353.794098       221.952072               0.       228.623962
              101                1       357.624573       122.737915               0.       167.528778
              101                2       387.165741       95.8269119               0.       141.220688
              101                3       299.322357       86.6478119               0.       160.204041
              101                4       328.147125       61.1548996               0.       135.393280
              102                1       340.713196       53.4501495               0.       26.8756809
              102                2       399.957489       173.743179               0.      -3.32061887
              102                3       279.420746       21.6644783               0.       48.6721039
              102                4       348.499390       147.938980               0.       14.3540087
              103                1       308.474823       172.255920               0.       140.492416
              103                2       352.992432       161.918869               0.       106.923470
              103                3       229.178177       129.689758               0.       137.100876
              103                4       271.240967       117.850464               0.       105.010406
              104                1       303.721741       118.431328               0.       39.6203651
              104                2       327.339966       154.739761               0.       19.8591595
              104                3       267.785156       99.7442703               0.       46.8913002
              104                4       292.294525       137.086166               0.       26.3896389
              105                1       279.319519       144.096024               0.       24.7822323
              105                2       256.392059       133.353806               0.       23.0206089
              105                3       276.966766       154.510818               0.       34.5217476
              105                4       255.130219       145.801010               0.       34.1675339
              106                1       249.468811       135.932343               0.       14.4894791
              106                2       245.620407       135.274628               0.       5.04744816
              106                3       257.346741       166.320068               0.       15.0422735
              106                4       254.206192       168.337158               0.       6.80689430
              107                1       278.722168       163.955322               0.       75.3101273
              107                2       226.117477       154.711838               0.       67.3680725
              107                3       280.004547       215.545441               0.       86.1111374
              107                4       231.310867       214.877625               0.       80.1566467
              108                1       221.271469       170.360992               0.       29.2188511
              108                2       218.910599       178.818283               0.       14.3740892
              108                3       229.044861       206.279205               0.       28.1000042
              108                4       226.450790       215.614166               0.       15.2220201
              109                1       178.383194       227.276367               0.       25.4637909
              109                2       192.631668       268.258911               0.       24.7244873
              109                3       175.670105       208.522186               0.       46.8280411
              109                4       189.996399       249.936981               0.       44.7705078
              110                1       115.408546       270.519104               0.       36.4846382
              110                2       145.619431       327.835419               0.       33.5219917
              110                3       96.7948074       237.388321               0.       66.6637878
              110                4       128.976044       298.348785               0.       62.3969421
              111                1       36.9137192       312.598053               0.       41.5348206
              111                2       70.7936249       371.056274               0.       40.3627434
              111                3       23.0579586       286.471527               0.       68.1999893
              111                4       61.0066833       351.960114               0.       67.4768066
              112                1       189.407745       211.950974               0.       110.314491
              112                2       224.172974       292.273132               0.       109.795433
              112                3       189.411850       164.140091               0.       135.522720
              112                4       226.110352       243.027786               0.       137.950928
              113                1       153.464584       288.095490               0.       131.909393
              113                2       180.947067       340.031982               0.       133.706528
              113                3       151.948212       251.573074               0.       151.721497
              113                4       180.052094       302.882263               0.       155.119370
              114                1       99.9829865       333.204132               0.       147.998184
              114                2       134.542648       396.605988               0.       153.364914
              114                3       95.8505173       290.313721               0.       172.604568
              114                4       131.401611       352.844879               0.       180.331940
              115                1       222.057571       353.759094               0.       228.561859
              115                2       244.720047       308.868713               0.       240.710464
              115                3       187.726410       303.794861               0.       216.499298
              115                4       208.459641       264.038452               0.       227.467911
              116                1       235.194077       319.530243               0.       195.861374
              116                2       243.030380       287.169159               0.       204.209686
              116                3       218.941803       292.939789               0.       191.735458
              116                4       223.242172       260.327179               0.       198.365799
              117                1       240.712463       251.286057               0.       194.640701
              117                2       254.467133       255.453583               0.       195.567169
              117                3       274.358521       272.623657               0.       185.192062
              117                4       289.830444       278.635376               0.       184.726334
              118                1       250.740662       235.159241               0.       205.665268
              118                2       282.556122       258.011932               0.       213.333801
              118                3       285.336761       232.708679               0.       195.816956
              118                4       319.279510       254.107681               0.       201.932480
              119                1       263.445190       222.593262               0.       238.709076
              119                2       318.859955       267.069275               0.       255.767746
              119                3       307.245789       204.410004               0.       225.653809
              119                4       369.657959       248.752838               0.       241.972687
              120                1       352.454163       131.587463               0.       180.575241
              120                2       396.643341       135.881912               0.       153.497452
              120                3       289.730286       96.0317078               0.       172.848465
              120                4       332.840057       101.130951               0.       148.135620
              121                1       351.982544       61.0062218               0.       67.7188568
              121                2       371.159607       70.8542786               0.       40.3858376
              121                3       286.167419       22.9197350               0.       68.3021240
              121                4       312.157135       36.6970177               0.       41.5269203
              122                1       302.830566       180.458557               0.       155.256805
              122                2       339.427368       180.121140               0.       133.941147
              122                3       252.155518       152.612228               0.       151.826202
              122                4       288.408722       153.104065               0.       132.124130
              123                1       298.520416       129.628204               0.       62.4766541
              123                2       327.735779       145.722305               0.       33.5831108
              123                3       237.442551       97.4015808               0.       66.8019104
              123                4       270.902985       115.769440               0.       36.4632721
              124                1       243.498123       225.764954               0.       138.054184
              124                2       292.966064       224.047485               0.       109.903038
              124                3       164.617416       189.045700               0.       135.651138
              124                4       212.389175       189.112488               0.       110.431511
              125                1       249.825348       189.527542               0.       44.7727356
              125                2       268.515869       192.607803               0.       24.7264061
              125                3       208.464478       175.193970               0.       46.9109688
              125                4       227.552963       178.327972               0.       25.5453682
              126                1       215.961456       226.475098               0.       15.2045498
              126                2       178.972168       218.875107               0.       14.4168043
              126                3       206.373596       228.848450               0.       28.1309853
              126                4       170.309067       221.017242               0.       29.3110523
              127                1       168.437927       254.230759               0.       6.80849171
              127                2       135.303162       245.627960               0.       5.04701138
              127                3       166.372360       257.355591               0.       15.0488281
              127                4       135.942032       249.465759               0.       14.4937115
              128                1       215.219101       231.251205               0.       80.2560501
              128                2       154.801056       225.905396               0.       67.4561539
              128                3       215.904785       279.922272               0.       86.2553864
              128                4       164.046936       278.523743               0.       75.4361954
              129                1       145.828537       255.140259               0.       34.1714973
              129                2       133.354721       256.377441               0.       23.0237370
              129                3       154.530289       276.950439               0.       34.5330925
              129                4       144.087952       279.284607               0.       24.7886734
              130                1       137.088882       292.262115               0.       26.4020748
              130                2       154.744370       327.316254               0.       19.8882484
              130                3       99.8324661       267.796753               0.       46.9034691
              130                4       118.505295       303.725586               0.       39.6566353
              131                1       147.916946       348.479126               0.       14.3875103
              131                2       173.725891       399.962280               0.      -3.29093218
              131                3       21.6264915       279.391357               0.       48.7118187
              131                4       53.3664398       340.678772               0.       26.9273491
              132                1       117.947235       271.132782               0.       105.102112
              132                2       162.037140       352.911560               0.       107.017838
              132                3       129.674774       229.137299               0.       137.197586
              132                4       172.237396       308.352173               0.       140.626480
              133                1       61.3014603       328.189301               0.       135.430847
              133                2       95.9636230       387.175415               0.       141.250824
              133                3       86.6056442       299.331207               0.       160.232956
              133                4       122.677361       357.577728               0.       167.557434
              134                1       353.759094       222.057571               0.      -228.561859
              134                2       308.868713       244.720047               0.      -240.710464
              134                3       303.794861       187.726410               0.      -216.499298
              134                4       264.038452       208.459641               0.      -227.467911
              135                1       319.530243       235.194077               0.      -195.861374
              135                2       287.169159       243.030380               0.      -204.209686
              135                3       292.939789       218.941803               0.      -191.735458
              135                4       260.327179       223.242172               0.      -198.365799
              136                1       251.286057       240.712463               0.      -194.640701
              136                2       255.453583       254.467133               0.      -195.567169
              136                3       272.623657       274.358521               0.      -185.192062
              136                4       278.635376       289.830444               0.      -184.726334
              137                1       235.159241       250.740662               0.      -205.665268
              137                2       258.011932       282.556122               0.      -213.333801
              137                3       232.708679       285.336761               0.      -195.816956
              137                4       254.107681       319.279510               0.      -201.932480
              138                1       222.593262       263.445190               0.      -238.709076
              138                2       267.069275       318.859955               0.      -255.767746
              138                3       204.410004       307.245789               0.      -225.653809
              138                4       248.752838       369.657959               0.      -241.972687
              139                1       131.587463       352.454163               0.      -180.575241
              139                2       135.881912       396.643341               0.      -153.497452
              139                3       96.0317078       289.730286               0.      -172.848465
              139                4       101.130951       332.840057               0.      -148.135620
              140                1       61.0062218       351.982544               0.      -67.7188568
              140                2       70.8542786       371.159607               0.      -40.3858376
              140                3       22.9197350       286.167419               0.      -68.3021240
              140                4       36.6970177       312.157135               0.      -41.5269203
              141                1       180.458557       302.830566               0.      -155.256805
              141                2       180.121140       339.427368               0.      -133.941147
              141                3       152.612228       252.155518               0.      -151.826202
              141                4       153.104065       288.408722               0.      -132.124130
              142                1       129.628204       298.520416               0.      -62.4766541
              142                2       145.722305       327.735779               0.      -33.5831108
              142                3       97.4015808       237.442551               0.      -66.8019104
              142                4       115.769440       270.902985               0.      -36.4632721
              143                1       225.764954       243.498123               0.      -138.054184
              143                2       224.047485       292.966064               0.      -109.903038
              143                3       189.045700       164.617416               0.      -135.651138
              143                4       189.112488       212.389175               0.      -110.431511
              144                1       189.527542       249.825348               0.      -44.7727356
              144                2       192.607803       268.515869               0.      -24.7264061
              144                3       175.193970       208.464478               0.      -46.9109688
              144                4       178.327972       227.552963               0.      -25.5453682
              145                1       226.475098       215.961456               0.      -15.2045498
              145                2       218.875107       178.972168               0.      -14.4168043
              145                3       228.848450       206.373596               0.      -28.1309853
              145                4       221.017242       170.309067               0.      -29.3110523
              146                1       254.230759       168.437927               0.      -6.80849171
              146                2       245.627960       135.303162               0.      -5.04701138
              146                3       257.355591       166.372360               0.      -15.0488281
              146                4       249.465759       135.942032               0.      -14.4937115
              147                1       231.251205       215.219101               0.      -80.2560501
              147                2       225.905396       154.801056               0.      -67.4561539
              147                3       279.922272       215.904785               0.      -86.2553864
              147                4       278.523743       164.046936               0.      -75.4361954
              148                1       255.140259       145.828537               0.      -34.1714973
              148                2       256.377441       133.354721               0.      -23.0237370
              148                3       276.950439       154.530289               0.      -34.5330925
              148                4       279.284607       144.087952               0.      -24.7886734
              149                1       292.262115       137.088882               0.      -26.4020748
              149                2       327.316254       154.744370               0.      -19.8882484
              149                3       267.796753       99.8324661               0.      -46.9034691
              149                4       303.725586       118.505295               0.      -39.6566353
              150                1       348.479126       147.916946               0.      -14.3875103
              150                2       399.962280       173.725891               0.       3.29093218
              150                3       279.391357       21.6264915               0.      -48.7118187
              150                4       340.678772       53.3664398               0.      -26.9273491
              151                1       271.132782       117.947235               0.      -105.102112
              151                2       352.911560       162.037140               0.      -107.017838
              151                3       229.137299       129.674774               0.      -137.197586
              151                4       308.352173       172.237396               0.      -140.626480
              152                1       328.189301       61.3014603               0.      -135.430847
              152                2       387.175415       95.9636230               0.      -141.250824
              152                3       299.331207       86.6056442               0.      -160.232956
              152                4       357.577728       122.677361               0.      -167.557434


********************************************************************************
Field Output Report, written Mon May 12 10:43:08 2025

Source 1
---------

   ODB: C:/lnms/Vid/CrossHoleSym2/CrossHoleSym2brezU.odb
   Step: loading
   Frame: Increment     10: Step Time =    1.000

Loc 1 : Integration point values from source 1

Output sorted by column "Element Label".

Field Output reported at integration points for part: SPECIMEN-1

          Element              Int            S.S11            S.S22            S.S33            S.S12
            Label               Pt           @Loc 1           @Loc 1           @Loc 1           @Loc 1
-------------------------------------------------------------------------------------------------------
                1                1       380.204803       239.167740               0.      -246.816177
                1                2       330.825928       262.034729               0.      -260.231506
                1                3       327.422211       203.382980               0.      -233.532669
                1                4       283.704895       224.259689               0.      -245.635818
                2                1       343.369324       251.352005               0.      -211.861420
                2                2       307.506531       259.560547               0.      -221.134094
                2                3       314.632416       233.883942               0.      -207.211380
                2                4       278.599640       238.302643               0.      -214.565277
                3                1       267.849121       257.086914               0.      -210.798523
                3                2       272.880127       272.230164               0.      -211.825882
                3                3       290.452972       294.508423               0.      -200.609421
                3                4       297.272461       311.491486               0.      -200.139542
                4                1       251.095673       267.625214               0.      -222.860794
                4                2       275.572784       301.774933               0.      -231.378174
                4                3       249.208710       306.449799               0.      -211.862091
                4                4       272.181793       343.025696               0.      -218.651108
                5                1       239.852036       282.565918               0.      -257.962158
                5                2       286.124908       340.576538               0.      -276.716919
                5                3       222.010910       330.892548               0.      -243.603882
                5                4       268.191833       396.542816               0.      -261.538635
                6                1       138.485214       374.400299               0.      -194.600891
                6                2       145.854080       423.910858               0.      -164.860428
                6                3       101.316818       307.450745               0.      -186.017517
                6                4       109.400803       355.751465               0.      -158.942749
                7                1       63.2853241       372.454102               0.      -72.8708878
                7                2       74.6635437       393.870026               0.      -42.7391815
                7                3       22.2825985       301.128174               0.      -73.5775528
                7                4       37.9647179       330.201752               0.      -44.0070648
                8                1       190.217651       321.292908               0.      -167.238037
                8                2       190.940338       362.355316               0.      -143.544144
                8                3       159.943695       265.901581               0.      -163.367828
                8                4       161.601883       306.718109               0.      -141.487228
                9                1       135.453903       314.389648               0.      -67.2309723
                9                2       153.344055       346.588593               0.      -35.6559715
                9                3       100.174690       247.535034               0.      -72.0169907
                9                4       120.790825       284.873413               0.      -38.7972450
               10                1       238.809570       256.304321               0.      -148.609543
               10                2       236.282288       312.194855               0.      -117.535782
               10                3       197.678024       168.129333               0.      -145.890930
               10                4       197.540268       222.921463               0.      -118.247238
               11                1       198.923767       262.731567               0.      -47.5956078
               11                2       202.538132       282.876556               0.      -26.1501980
               11                3       182.951187       217.830887               0.      -49.8804779
               11                4       186.647949       238.449539               0.      -27.0249577
               12                1       237.977264       226.863770               0.      -16.0370369
               12                2       229.176270       187.056168               0.      -15.0885057
               12                3       240.608063       216.674591               0.      -29.6440277
               12                4       231.648422       177.924850               0.      -30.7661381
               13                1       266.755188       176.458984               0.      -7.00613260
               13                2       257.160614       141.583740               0.      -5.20087671
               13                3       270.185211       174.446655               0.      -15.5491028
               13                4       261.419464       142.401367               0.      -14.9817972
               14                1       242.310532       227.377182               0.      -85.7389908
               14                2       236.872955       161.767075               0.      -71.6413422
               14                3       295.838928       228.170380               0.      -92.0140305
               14                4       294.498535       171.823471               0.      -79.9902420
               15                1       267.671600       152.258759               0.      -35.9811630
               15                2       268.972748       139.682281               0.      -23.9683819
               15                3       291.388031       161.895584               0.      -36.2087593
               15                4       293.887390       151.414612               0.      -25.6924229
               16                1       307.847076       143.973022               0.      -27.3603439
               16                2       345.501343       162.945328               0.      -20.3583050
               16                3       281.046783       102.897903               0.      -49.4473801
               16                4       319.783386       123.061211               0.      -41.6327209
               17                1       368.122772       155.976196               0.      -14.6635942
               17                2       423.183563       183.655472               0.       3.85345030
               17                3       292.891541       19.9202061               0.      -51.9012909
               17                4       359.112579       54.5748825               0.      -28.8753624
               18                1       286.203735       123.656418               0.      -112.160736
               18                2       375.905243       171.828033               0.      -113.956581
               18                3       237.522858       135.004593               0.      -148.000107
               18                4       325.222046       181.752274               0.      -151.598312
               19                1       350.560883       66.2120590               0.      -144.353409
               19                2       414.456116       103.090736               0.      -150.395996
               19                3       316.514740       90.7907639               0.      -172.258133
               19                4       379.810333       129.128708               0.      -180.085754
               20                1       396.479828       267.561249               0.      -261.670654
               20                2       340.684387       286.321411               0.      -276.902832
               20                3       330.567474       221.229523               0.      -243.662872
               20                4       282.931305       240.163620               0.      -258.193298
               21                1       343.347595       272.264679               0.      -218.540588
               21                2       302.317566       275.965607               0.      -231.357574
               21                3       306.558807       249.132538               0.      -211.706619
               21                4       267.372528       250.922195               0.      -222.664200
               22                1       311.096161       297.461945               0.      -199.975159
               22                2       271.703827       272.440277               0.      -211.695084
               22                3       294.439789       290.888550               0.      -200.540207
               22                4       257.019653       267.797516               0.      -210.781723
               23                1       238.223282       278.600769               0.      -214.598557
               23                2       259.600861       307.611328               0.      -221.194290
               23                3       233.436111       314.606476               0.      -207.236740
               23                4       250.986984       343.486145               0.      -211.911530
               24                1       224.343048       283.868103               0.      -245.699219
               24                2       262.105988       330.945160               0.      -260.278320
               24                3       203.274261       327.468170               0.      -233.610596
               24                4       239.047058       380.249146               0.      -246.885162
               25                1       129.206406       379.861755               0.      -180.054413
               25                2       102.942863       414.444183               0.      -150.362457
               25                3       90.8454895       316.502472               0.      -172.227646
               25                4       66.0510864       350.511688               0.      -144.312515
               26                1       54.6667938       359.151184               0.      -28.8201427
               26                2       183.674316       423.178772               0.       3.88537979
               26                3       19.9621010       292.923859               0.      -51.8590775
               26                4       155.999969       368.144470               0.      -14.6275578
               27                1       181.793274       325.356384               0.      -151.451981
               27                2       171.703140       375.989746               0.      -113.853348
               27                3       135.038651       237.559601               0.      -147.896881
               27                4       123.552971       286.315918               0.      -112.061638
               28                1       122.978378       319.777527               0.      -41.5941658
               28                2       162.939590       345.526245               0.      -20.3270664
               28                3       102.798965       281.031769               0.      -49.4351807
               28                4       143.969162       307.881226               0.      -27.3473263
               29                1       151.424042       293.924530               0.      -25.6856461
               29                2       139.682114       268.988220               0.      -23.9648285
               29                3       161.877182       291.404877               0.      -36.1966095
               29                4       152.231567       267.660095               0.      -35.9767189
               30                1       142.390839       261.422394               0.      -14.9770365
               30                2       141.553360       257.152161               0.      -5.20116091
               30                3       174.390457       270.174713               0.      -15.5418224
               30                4       176.351532       266.727325               0.      -7.00418425
               31                1       171.727478       294.708893               0.      -79.8516388
               31                2       161.673538       237.100327               0.      -71.5452042
               31                3       227.781662       295.923157               0.      -91.8562851
               31                4       227.007553       242.369843               0.      -85.6319199
               32                1       177.986176       231.921310               0.      -30.6663322
               32                2       186.892487       229.211411               0.      -15.0417671
               32                3       216.575439       240.816879               0.      -29.6088486
               32                4       226.488876       237.945618               0.      -16.0534744
               33                1       238.149307       186.702362               0.      -26.9376316
               33                2       282.598816       202.562180               0.      -26.1479797
               33                3       217.900070       183.464233               0.      -49.7893295
               33                4       262.857758       199.430664               0.      -47.5914078
               34                1       284.455139       120.392639               0.      -38.8174248
               34                2       346.690552       153.223419               0.      -35.5868912
               34                3       247.484406       99.5008926               0.      -71.8559723
               34                4       314.199310       134.725433               0.      -67.1365585
               35                1       330.671417       38.1942062               0.      -44.0169182
               35                2       393.771271       74.6177368               0.      -42.7159386
               35                3       301.448608       22.4523945               0.      -73.4863815
               35                4       372.450378       63.3377495               0.      -72.6243057
               36                1       222.448563       197.845413               0.      -118.121239
               36                2       311.449402       236.400635               0.      -117.417778
               36                3       167.605804       198.060928               0.      -145.750061
               36                4       255.797928       239.173248               0.      -148.496063
               37                1       306.368286       162.004974               0.      -141.257950
               37                2       362.995819       191.845383               0.      -143.299057
               37                3       265.259155       159.198242               0.      -163.253769
               37                4       321.333099       189.749191               0.      -167.094101
               38                1       356.133087       108.143326               0.      -158.798203
               38                2       423.864807       144.403381               0.      -164.716232
               38                3       308.095947       101.164886               0.      -185.750076
               38                4       374.845154       138.344070               0.      -194.328339
               39                1       239.167740       380.204803               0.       246.816177
               39                2       262.034729       330.825928               0.       260.231506
               39                3       203.382980       327.422211               0.       233.532669
               39                4       224.259689       283.704895               0.       245.635818
               40                1       251.352005       343.369324               0.       211.861420
               40                2       259.560547       307.506531               0.       221.134094
               40                3       233.883942       314.632416               0.       207.211380
               40                4       238.302643       278.599640               0.       214.565277
               41                1       257.086914       267.849121               0.       210.798523
               41                2       272.230164       272.880127               0.       211.825882
               41                3       294.508423       290.452972               0.       200.609421
               41                4       311.491486       297.272461               0.       200.139542
               42                1       267.625214       251.095673               0.       222.860794
               42                2       301.774933       275.572784               0.       231.378174
               42                3       306.449799       249.208710               0.       211.862091
               42                4       343.025696       272.181793               0.       218.651108
               43                1       282.565918       239.852036               0.       257.962158
               43                2       340.576538       286.124908               0.       276.716919
               43                3       330.892548       222.010910               0.       243.603882
               43                4       396.542816       268.191833               0.       261.538635
               44                1       374.400299       138.485214               0.       194.600891
               44                2       423.910858       145.854080               0.       164.860428
               44                3       307.450745       101.316818               0.       186.017517
               44                4       355.751465       109.400803               0.       158.942749
               45                1       372.454102       63.2853241               0.       72.8708878
               45                2       393.870026       74.6635437               0.       42.7391815
               45                3       301.128174       22.2825985               0.       73.5775528
               45                4       330.201752       37.9647179               0.       44.0070648
               46                1       321.292908       190.217651               0.       167.238037
               46                2       362.355316       190.940338               0.       143.544144
               46                3       265.901581       159.943695               0.       163.367828
               46                4       306.718109       161.601883               0.       141.487228
               47                1       314.389648       135.453903               0.       67.2309723
               47                2       346.588593       153.344055               0.       35.6559715
               47                3       247.535034       100.174690               0.       72.0169907
               47                4       284.873413       120.790825               0.       38.7972450
               48                1       256.304321       238.809570               0.       148.609543
               48                2       312.194855       236.282288               0.       117.535782
               48                3       168.129333       197.678024               0.       145.890930
               48                4       222.921463       197.540268               0.       118.247238
               49                1       262.731567       198.923767               0.       47.5956078
               49                2       282.876556       202.538132               0.       26.1501980
               49                3       217.830887       182.951187               0.       49.8804779
               49                4       238.449539       186.647949               0.       27.0249577
               50                1       226.863770       237.977264               0.       16.0370369
               50                2       187.056168       229.176270               0.       15.0885057
               50                3       216.674591       240.608063               0.       29.6440277
               50                4       177.924850       231.648422               0.       30.7661381
               51                1       176.458984       266.755188               0.       7.00613260
               51                2       141.583740       257.160614               0.       5.20087671
               51                3       174.446655       270.185211               0.       15.5491028
               51                4       142.401367       261.419464               0.       14.9817972
               52                1       227.377182       242.310532               0.       85.7389908
               52                2       161.767075       236.872955               0.       71.6413422
               52                3       228.170380       295.838928               0.       92.0140305
               52                4       171.823471       294.498535               0.       79.9902420
               53                1       152.258759       267.671600               0.       35.9811630
               53                2       139.682281       268.972748               0.       23.9683819
               53                3       161.895584       291.388031               0.       36.2087593
               53                4       151.414612       293.887390               0.       25.6924229
               54                1       143.973022       307.847076               0.       27.3603439
               54                2       162.945328       345.501343               0.       20.3583050
               54                3       102.897903       281.046783               0.       49.4473801
               54                4       123.061211       319.783386               0.       41.6327209
               55                1       155.976196       368.122772               0.       14.6635942
               55                2       183.655472       423.183563               0.      -3.85345030
               55                3       19.9202061       292.891541               0.       51.9012909
               55                4       54.5748825       359.112579               0.       28.8753624
               56                1       123.656418       286.203735               0.       112.160736
               56                2       171.828033       375.905243               0.       113.956581
               56                3       135.004593       237.522858               0.       148.000107
               56                4       181.752274       325.222046               0.       151.598312
               57                1       66.2120590       350.560883               0.       144.353409
               57                2       103.090736       414.456116               0.       150.395996
               57                3       90.7907639       316.514740               0.       172.258133
               57                4       129.128708       379.810333               0.       180.085754
               58                1       267.561249       396.479828               0.       261.670654
               58                2       286.321411       340.684387               0.       276.902832
               58                3       221.229523       330.567474               0.       243.662872
               58                4       240.163620       282.931305               0.       258.193298
               59                1       272.264679       343.347595               0.       218.540588
               59                2       275.965607       302.317566               0.       231.357574
               59                3       249.132538       306.558807               0.       211.706619
               59                4       250.922195       267.372528               0.       222.664200
               60                1       297.461945       311.096161               0.       199.975159
               60                2       272.440277       271.703827               0.       211.695084
               60                3       290.888550       294.439789               0.       200.540207
               60                4       267.797516       257.019653               0.       210.781723
               61                1       278.600769       238.223282               0.       214.598557
               61                2       307.611328       259.600861               0.       221.194290
               61                3       314.606476       233.436111               0.       207.236740
               61                4       343.486145       250.986984               0.       211.911530
               62                1       283.868103       224.343048               0.       245.699219
               62                2       330.945160       262.105988               0.       260.278320
               62                3       327.468170       203.274261               0.       233.610596
               62                4       380.249146       239.047058               0.       246.885162
               63                1       379.861755       129.206406               0.       180.054413
               63                2       414.444183       102.942863               0.       150.362457
               63                3       316.502472       90.8454895               0.       172.227646
               63                4       350.511688       66.0510864               0.       144.312515
               64                1       359.151184       54.6667938               0.       28.8201427
               64                2       423.178772       183.674316               0.      -3.88537979
               64                3       292.923859       19.9621010               0.       51.8590775
               64                4       368.144470       155.999969               0.       14.6275578
               65                1       325.356384       181.793274               0.       151.451981
               65                2       375.989746       171.703140               0.       113.853348
               65                3       237.559601       135.038651               0.       147.896881
               65                4       286.315918       123.552971               0.       112.061638
               66                1       319.777527       122.978378               0.       41.5941658
               66                2       345.526245       162.939590               0.       20.3270664
               66                3       281.031769       102.798965               0.       49.4351807
               66                4       307.881226       143.969162               0.       27.3473263
               67                1       293.924530       151.424042               0.       25.6856461
               67                2       268.988220       139.682114               0.       23.9648285
               67                3       291.404877       161.877182               0.       36.1966095
               67                4       267.660095       152.231567               0.       35.9767189
               68                1       261.422394       142.390839               0.       14.9770365
               68                2       257.152161       141.553360               0.       5.20116091
               68                3       270.174713       174.390457               0.       15.5418224
               68                4       266.727325       176.351532               0.       7.00418425
               69                1       294.708893       171.727478               0.       79.8516388
               69                2       237.100327       161.673538               0.       71.5452042
               69                3       295.923157       227.781662               0.       91.8562851
               69                4       242.369843       227.007553               0.       85.6319199
               70                1       231.921310       177.986176               0.       30.6663322
               70                2       229.211411       186.892487               0.       15.0417671
               70                3       240.816879       216.575439               0.       29.6088486
               70                4       237.945618       226.488876               0.       16.0534744
               71                1       186.702362       238.149307               0.       26.9376316
               71                2       202.562180       282.598816               0.       26.1479797
               71                3       183.464233       217.900070               0.       49.7893295
               71                4       199.430664       262.857758               0.       47.5914078
               72                1       120.392639       284.455139               0.       38.8174248
               72                2       153.223419       346.690552               0.       35.5868912
               72                3       99.5008926       247.484406               0.       71.8559723
               72                4       134.725433       314.199310               0.       67.1365585
               73                1       38.1942062       330.671417               0.       44.0169182
               73                2       74.6177368       393.771271               0.       42.7159386
               73                3       22.4523945       301.448608               0.       73.4863815
               73                4       63.3377495       372.450378               0.       72.6243057
               74                1       197.845413       222.448563               0.       118.121239
               74                2       236.400635       311.449402               0.       117.417778
               74                3       198.060928       167.605804               0.       145.750061
               74                4       239.173248       255.797928               0.       148.496063
               75                1       162.004974       306.368286               0.       141.257950
               75                2       191.845383       362.995819               0.       143.299057
               75                3       159.198242       265.259155               0.       163.253769
               75                4       189.749191       321.333099               0.       167.094101
               76                1       108.143326       356.133087               0.       158.798203
               76                2       144.403381       423.864807               0.       164.716232
               76                3       101.164886       308.095947               0.       185.750076
               76                4       138.344070       374.845154               0.       194.328339
               77                1       396.479828       267.561249               0.      -261.670654
               77                2       340.684387       286.321411               0.      -276.902832
               77                3       330.567474       221.229523               0.      -243.662872
               77                4       282.931305       240.163620               0.      -258.193298
               78                1       343.347595       272.264679               0.      -218.540588
               78                2       302.317566       275.965607               0.      -231.357574
               78                3       306.558807       249.132538               0.      -211.706619
               78                4       267.372528       250.922195               0.      -222.664200
               79                1       311.096161       297.461945               0.      -199.975159
               79                2       271.703827       272.440277               0.      -211.695084
               79                3       294.439789       290.888550               0.      -200.540207
               79                4       257.019653       267.797516               0.      -210.781723
               80                1       238.223282       278.600769               0.      -214.598557
               80                2       259.600861       307.611328               0.      -221.194290
               80                3       233.436111       314.606476               0.      -207.236740
               80                4       250.986984       343.486145               0.      -211.911530
               81                1       224.343048       283.868103               0.      -245.699219
               81                2       262.105988       330.945160               0.      -260.278320
               81                3       203.274261       327.468170               0.      -233.610596
               81                4       239.047058       380.249146               0.      -246.885162
               82                1       129.206406       379.861755               0.      -180.054413
               82                2       102.942863       414.444183               0.      -150.362457
               82                3       90.8454895       316.502472               0.      -172.227646
               82                4       66.0510864       350.511688               0.      -144.312515
               83                1       54.6667938       359.151184               0.      -28.8201427
               83                2       183.674316       423.178772               0.       3.88537979
               83                3       19.9621010       292.923859               0.      -51.8590775
               83                4       155.999969       368.144470               0.      -14.6275578
               84                1       181.793274       325.356384               0.      -151.451981
               84                2       171.703140       375.989746               0.      -113.853348
               84                3       135.038651       237.559601               0.      -147.896881
               84                4       123.552971       286.315918               0.      -112.061638
               85                1       122.978378       319.777527               0.      -41.5941658
               85                2       162.939590       345.526245               0.      -20.3270664
               85                3       102.798965       281.031769               0.      -49.4351807
               85                4       143.969162       307.881226               0.      -27.3473263
               86                1       151.424042       293.924530               0.      -25.6856461
               86                2       139.682114       268.988220               0.      -23.9648285
               86                3       161.877182       291.404877               0.      -36.1966095
               86                4       152.231567       267.660095               0.      -35.9767189
               87                1       142.390839       261.422394               0.      -14.9770365
               87                2       141.553360       257.152161               0.      -5.20116091
               87                3       174.390457       270.174713               0.      -15.5418224
               87                4       176.351532       266.727325               0.      -7.00418425
               88                1       171.727478       294.708893               0.      -79.8516388
               88                2       161.673538       237.100327               0.      -71.5452042
               88                3       227.781662       295.923157               0.      -91.8562851
               88                4       227.007553       242.369843               0.      -85.6319199
               89                1       177.986176       231.921310               0.      -30.6663322
               89                2       186.892487       229.211411               0.      -15.0417671
               89                3       216.575439       240.816879               0.      -29.6088486
               89                4       226.488876       237.945618               0.      -16.0534744
               90                1       238.149307       186.702362               0.      -26.9376316
               90                2       282.598816       202.562180               0.      -26.1479797
               90                3       217.900070       183.464233               0.      -49.7893295
               90                4       262.857758       199.430664               0.      -47.5914078
               91                1       284.455139       120.392639               0.      -38.8174248
               91                2       346.690552       153.223419               0.      -35.5868912
               91                3       247.484406       99.5008926               0.      -71.8559723
               91                4       314.199310       134.725433               0.      -67.1365585
               92                1       330.671417       38.1942062               0.      -44.0169182
               92                2       393.771271       74.6177368               0.      -42.7159386
               92                3       301.448608       22.4523945               0.      -73.4863815
               92                4       372.450378       63.3377495               0.      -72.6243057
               93                1       222.448563       197.845413               0.      -118.121239
               93                2       311.449402       236.400635               0.      -117.417778
               93                3       167.605804       198.060928               0.      -145.750061
               93                4       255.797928       239.173248               0.      -148.496063
               94                1       306.368286       162.004974               0.      -141.257950
               94                2       362.995819       191.845383               0.      -143.299057
               94                3       265.259155       159.198242               0.      -163.253769
               94                4       321.333099       189.749191               0.      -167.094101
               95                1       356.133087       108.143326               0.      -158.798203
               95                2       423.864807       144.403381               0.      -164.716232
               95                3       308.095947       101.164886               0.      -185.750076
               95                4       374.845154       138.344070               0.      -194.328339
               96                1       267.561249       396.479828               0.       261.670654
               96                2       286.321411       340.684387               0.       276.902832
               96                3       221.229523       330.567474               0.       243.662872
               96                4       240.163620       282.931305               0.       258.193298
               97                1       272.264679       343.347595               0.       218.540588
               97                2       275.965607       302.317566               0.       231.357574
               97                3       249.132538       306.558807               0.       211.706619
               97                4       250.922195       267.372528               0.       222.664200
               98                1       297.461945       311.096161               0.       199.975159
               98                2       272.440277       271.703827               0.       211.695084
               98                3       290.888550       294.439789               0.       200.540207
               98                4       267.797516       257.019653               0.       210.781723
               99                1       278.600769       238.223282               0.       214.598557
               99                2       307.611328       259.600861               0.       221.194290
               99                3       314.606476       233.436111               0.       207.236740
               99                4       343.486145       250.986984               0.       211.911530
              100                1       283.868103       224.343048               0.       245.699219
              100                2       330.945160       262.105988               0.       260.278320
              100                3       327.468170       203.274261               0.       233.610596
              100                4       380.249146       239.047058               0.       246.885162
              101                1       379.861755       129.206406               0.       180.054413
              101                2       414.444183       102.942863               0.       150.362457
              101                3       316.502472       90.8454895               0.       172.227646
              101                4       350.511688       66.0510864               0.       144.312515
              102                1       359.151184       54.6667938               0.       28.8201427
              102                2       423.178772       183.674316               0.      -3.88537979
              102                3       292.923859       19.9621010               0.       51.8590775
              102                4       368.144470       155.999969               0.       14.6275578
              103                1       325.356384       181.793274               0.       151.451981
              103                2       375.989746       171.703140               0.       113.853348
              103                3       237.559601       135.038651               0.       147.896881
              103                4       286.315918       123.552971               0.       112.061638
              104                1       319.777527       122.978378               0.       41.5941658
              104                2       345.526245       162.939590               0.       20.3270664
              104                3       281.031769       102.798965               0.       49.4351807
              104                4       307.881226       143.969162               0.       27.3473263
              105                1       293.924530       151.424042               0.       25.6856461
              105                2       268.988220       139.682114               0.       23.9648285
              105                3       291.404877       161.877182               0.       36.1966095
              105                4       267.660095       152.231567               0.       35.9767189
              106                1       261.422394       142.390839               0.       14.9770365
              106                2       257.152161       141.553360               0.       5.20116091
              106                3       270.174713       174.390457               0.       15.5418224
              106                4       266.727325       176.351532               0.       7.00418425
              107                1       294.708893       171.727478               0.       79.8516388
              107                2       237.100327       161.673538               0.       71.5452042
              107                3       295.923157       227.781662               0.       91.8562851
              107                4       242.369843       227.007553               0.       85.6319199
              108                1       231.921310       177.986176               0.       30.6663322
              108                2       229.211411       186.892487               0.       15.0417671
              108                3       240.816879       216.575439               0.       29.6088486
              108                4       237.945618       226.488876               0.       16.0534744
              109                1       186.702362       238.149307               0.       26.9376316
              109                2       202.562180       282.598816               0.       26.1479797
              109                3       183.464233       217.900070               0.       49.7893295
              109                4       199.430664       262.857758               0.       47.5914078
              110                1       120.392639       284.455139               0.       38.8174248
              110                2       153.223419       346.690552               0.       35.5868912
              110                3       99.5008926       247.484406               0.       71.8559723
              110                4       134.725433       314.199310               0.       67.1365585
              111                1       38.1942062       330.671417               0.       44.0169182
              111                2       74.6177368       393.771271               0.       42.7159386
              111                3       22.4523945       301.448608               0.       73.4863815
              111                4       63.3377495       372.450378               0.       72.6243057
              112                1       197.845413       222.448563               0.       118.121239
              112                2       236.400635       311.449402               0.       117.417778
              112                3       198.060928       167.605804               0.       145.750061
              112                4       239.173248       255.797928               0.       148.496063
              113                1       162.004974       306.368286               0.       141.257950
              113                2       191.845383       362.995819               0.       143.299057
              113                3       159.198242       265.259155               0.       163.253769
              113                4       189.749191       321.333099               0.       167.094101
              114                1       108.143326       356.133087               0.       158.798203
              114                2       144.403381       423.864807               0.       164.716232
              114                3       101.164886       308.095947               0.       185.750076
              114                4       138.344070       374.845154               0.       194.328339
              115                1       239.167740       380.204803               0.       246.816177
              115                2       262.034729       330.825928               0.       260.231506
              115                3       203.382980       327.422211               0.       233.532669
              115                4       224.259689       283.704895               0.       245.635818
              116                1       251.352005       343.369324               0.       211.861420
              116                2       259.560547       307.506531               0.       221.134094
              116                3       233.883942       314.632416               0.       207.211380
              116                4       238.302643       278.599640               0.       214.565277
              117                1       257.086914       267.849121               0.       210.798523
              117                2       272.230164       272.880127               0.       211.825882
              117                3       294.508423       290.452972               0.       200.609421
              117                4       311.491486       297.272461               0.       200.139542
              118                1       267.625214       251.095673               0.       222.860794
              118                2       301.774933       275.572784               0.       231.378174
              118                3       306.449799       249.208710               0.       211.862091
              118                4       343.025696       272.181793               0.       218.651108
              119                1       282.565918       239.852036               0.       257.962158
              119                2       340.576538       286.124908               0.       276.716919
              119                3       330.892548       222.010910               0.       243.603882
              119                4       396.542816       268.191833               0.       261.538635
              120                1       374.400299       138.485214               0.       194.600891
              120                2       423.910858       145.854080               0.       164.860428
              120                3       307.450745       101.316818               0.       186.017517
              120                4       355.751465       109.400803               0.       158.942749
              121                1       372.454102       63.2853241               0.       72.8708878
              121                2       393.870026       74.6635437               0.       42.7391815
              121                3       301.128174       22.2825985               0.       73.5775528
              121                4       330.201752       37.9647179               0.       44.0070648
              122                1       321.292908       190.217651               0.       167.238037
              122                2       362.355316       190.940338               0.       143.544144
              122                3       265.901581       159.943695               0.       163.367828
              122                4       306.718109       161.601883               0.       141.487228
              123                1       314.389648       135.453903               0.       67.2309723
              123                2       346.588593       153.344055               0.       35.6559715
              123                3       247.535034       100.174690               0.       72.0169907
              123                4       284.873413       120.790825               0.       38.7972450
              124                1       256.304321       238.809570               0.       148.609543
              124                2       312.194855       236.282288               0.       117.535782
              124                3       168.129333       197.678024               0.       145.890930
              124                4       222.921463       197.540268               0.       118.247238
              125                1       262.731567       198.923767               0.       47.5956078
              125                2       282.876556       202.538132               0.       26.1501980
              125                3       217.830887       182.951187               0.       49.8804779
              125                4       238.449539       186.647949               0.       27.0249577
              126                1       226.863770       237.977264               0.       16.0370369
              126                2       187.056168       229.176270               0.       15.0885057
              126                3       216.674591       240.608063               0.       29.6440277
              126                4       177.924850       231.648422               0.       30.7661381
              127                1       176.458984       266.755188               0.       7.00613260
              127                2       141.583740       257.160614               0.       5.20087671
              127                3       174.446655       270.185211               0.       15.5491028
              127                4       142.401367       261.419464               0.       14.9817972
              128                1       227.377182       242.310532               0.       85.7389908
              128                2       161.767075       236.872955               0.       71.6413422
              128                3       228.170380       295.838928               0.       92.0140305
              128                4       171.823471       294.498535               0.       79.9902420
              129                1       152.258759       267.671600               0.       35.9811630
              129                2       139.682281       268.972748               0.       23.9683819
              129                3       161.895584       291.388031               0.       36.2087593
              129                4       151.414612       293.887390               0.       25.6924229
              130                1       143.973022       307.847076               0.       27.3603439
              130                2       162.945328       345.501343               0.       20.3583050
              130                3       102.897903       281.046783               0.       49.4473801
              130                4       123.061211       319.783386               0.       41.6327209
              131                1       155.976196       368.122772               0.       14.6635942
              131                2       183.655472       423.183563               0.      -3.85345030
              131                3       19.9202061       292.891541               0.       51.9012909
              131                4       54.5748825       359.112579               0.       28.8753624
              132                1       123.656418       286.203735               0.       112.160736
              132                2       171.828033       375.905243               0.       113.956581
              132                3       135.004593       237.522858               0.       148.000107
              132                4       181.752274       325.222046               0.       151.598312
              133                1       66.2120590       350.560883               0.       144.353409
              133                2       103.090736       414.456116               0.       150.395996
              133                3       90.7907639       316.514740               0.       172.258133
              133                4       129.128708       379.810333               0.       180.085754
              134                1       380.204803       239.167740               0.      -246.816177
              134                2       330.825928       262.034729               0.      -260.231506
              134                3       327.422211       203.382980               0.      -233.532669
              134                4       283.704895       224.259689               0.      -245.635818
              135                1       343.369324       251.352005               0.      -211.861420
              135                2       307.506531       259.560547               0.      -221.134094
              135                3       314.632416       233.883942               0.      -207.211380
              135                4       278.599640       238.302643               0.      -214.565277
              136                1       267.849121       257.086914               0.      -210.798523
              136                2       272.880127       272.230164               0.      -211.825882
              136                3       290.452972       294.508423               0.      -200.609421
              136                4       297.272461       311.491486               0.      -200.139542
              137                1       251.095673       267.625214               0.      -222.860794
              137                2       275.572784       301.774933               0.      -231.378174
              137                3       249.208710       306.449799               0.      -211.862091
              137                4       272.181793       343.025696               0.      -218.651108
              138                1       239.852036       282.565918               0.      -257.962158
              138                2       286.124908       340.576538               0.      -276.716919
              138                3       222.010910       330.892548               0.      -243.603882
              138                4       268.191833       396.542816               0.      -261.538635
              139                1       138.485214       374.400299               0.      -194.600891
              139                2       145.854080       423.910858               0.      -164.860428
              139                3       101.316818       307.450745               0.      -186.017517
              139                4       109.400803       355.751465               0.      -158.942749
              140                1       63.2853241       372.454102               0.      -72.8708878
              140                2       74.6635437       393.870026               0.      -42.7391815
              140                3       22.2825985       301.128174               0.      -73.5775528
              140                4       37.9647179       330.201752               0.      -44.0070648
              141                1       190.217651       321.292908               0.      -167.238037
              141                2       190.940338       362.355316               0.      -143.544144
              141                3       159.943695       265.901581               0.      -163.367828
              141                4       161.601883       306.718109               0.      -141.487228
              142                1       135.453903       314.389648               0.      -67.2309723
              142                2       153.344055       346.588593               0.      -35.6559715
              142                3       100.174690       247.535034               0.      -72.0169907
              142                4       120.790825       284.873413               0.      -38.7972450
              143                1       238.809570       256.304321               0.      -148.609543
              143                2       236.282288       312.194855               0.      -117.535782
              143                3       197.678024       168.129333               0.      -145.890930
              143                4       197.540268       222.921463               0.      -118.247238
              144                1       198.923767       262.731567               0.      -47.5956078
              144                2       202.538132       282.876556               0.      -26.1501980
              144                3       182.951187       217.830887               0.      -49.8804779
              144                4       186.647949       238.449539               0.      -27.0249577
              145                1       237.977264       226.863770               0.      -16.0370369
              145                2       229.176270       187.056168               0.      -15.0885057
              145                3       240.608063       216.674591               0.      -29.6440277
              145                4       231.648422       177.924850               0.      -30.7661381
              146                1       266.755188       176.458984               0.      -7.00613260
              146                2       257.160614       141.583740               0.      -5.20087671
              146                3       270.185211       174.446655               0.      -15.5491028
              146                4       261.419464       142.401367               0.      -14.9817972
              147                1       242.310532       227.377182               0.      -85.7389908
              147                2       236.872955       161.767075               0.      -71.6413422
              147                3       295.838928       228.170380               0.      -92.0140305
              147                4       294.498535       171.823471               0.      -79.9902420
              148                1       267.671600       152.258759               0.      -35.9811630
              148                2       268.972748       139.682281               0.      -23.9683819
              148                3       291.388031       161.895584               0.      -36.2087593
              148                4       293.887390       151.414612               0.      -25.6924229
              149                1       307.847076       143.973022               0.      -27.3603439
              149                2       345.501343       162.945328               0.      -20.3583050
              149                3       281.046783       102.897903               0.      -49.4473801
              149                4       319.783386       123.061211               0.      -41.6327209
              150                1       368.122772       155.976196               0.      -14.6635942
              150                2       423.183563       183.655472               0.       3.85345030
              150                3       292.891541       19.9202061               0.      -51.9012909
              150                4       359.112579       54.5748825               0.      -28.8753624
              151                1       286.203735       123.656418               0.      -112.160736
              151                2       375.905243       171.828033               0.      -113.956581
              151                3       237.522858       135.004593               0.      -148.000107
              151                4       325.222046       181.752274               0.      -151.598312
              152                1       350.560883       66.2120590               0.      -144.353409
              152                2       414.456116       103.090736               0.      -150.395996
              152                3       316.514740       90.7907639               0.      -172.258133
              152                4       379.810333       129.128708               0.      -180.085754


