********************************************************************************
Field Output Report, written Tue Apr 15 10:02:36 2025

Source 1
---------

   ODB: C:/lnms/Vid/4ele/stena-4U_starman.odb
   Step: loading
   Frame: Increment     10: Step Time =    1.000

Loc 1 : Integration point values from source 1

Output sorted by column "Element Label".

Field Output reported at integration points for region: STENA-1.Region_1

          Element              Int            S.S11            S.S22            S.S33            S.S12
            Label               Pt           @Loc 1           @Loc 1           @Loc 1           @Loc 1
-------------------------------------------------------------------------------------------------------
                1                1       788.920837   59.9238686E-03               0.  -27.8009986E-15
                1                2       788.920837   59.9238686E-03               0.  -123.979833E-15
                1                3       788.920837   59.9238686E-03               0.  -19.1082095E-15
                1                4       788.920837   59.9238686E-03               0.  -115.287039E-15
                2                1       788.920837   59.9238686E-03               0.  -92.9614255E-15
                2                2       788.920837   59.9238686E-03               0.   132.612386E-15
                2                3       788.920837   59.9238686E-03               0.  -5.63520347E-15
                2                4       788.920837   59.9238686E-03               0.   219.938610E-15
                3                1       788.920837   59.9238686E-03               0.  -33.9184688E-15
                3                2       788.920837   59.9238686E-03               0.  -167.267540E-15
                3                3       788.920837   59.9238686E-03               0.  -45.2695268E-15
                3                4       788.920837   59.9238686E-03               0.  -178.618595E-15
                4                1       788.920837   59.9238686E-03               0.   79.1286660E-15
                4                2       788.920837   59.9238686E-03               0.   14.7687377E-15
                4                3       788.920837   59.9238686E-03               0.  -62.9661050E-15
                4                4       788.920837   59.9238686E-03               0.  -127.326033E-15


  Minimum                                   788.921      59.9239E-03               0.     -178.619E-15
       At Element                                 4                4                4                3
           Int Pt                                 4                4                4                4

  Maximum                                   788.921      59.9239E-03               0.      219.939E-15
       At Element                                 1                1                4                2
           Int Pt                                 1                1                4                4

            Total                    12.6227334E+03   958.781898E-03               0.  -553.690577E-15


Field Output reported at integration points for region: STENA-1.Region_2

          Element              Int            S.S11            S.S22            S.S33            S.S12
            Label               Pt           @Loc 1           @Loc 1           @Loc 1           @Loc 1
-------------------------------------------------------------------------------------------------------
             1001                1               0.               0.               0.               0.
             1001                2               0.               0.               0.               0.
             1001                3               0.               0.               0.               0.
             1001                4               0.               0.               0.               0.
             1002                1               0.               0.               0.               0.
             1002                2               0.               0.               0.               0.
             1002                3               0.               0.               0.               0.
             1002                4               0.               0.               0.               0.
             1003                1               0.               0.               0.               0.
             1003                2               0.               0.               0.               0.
             1003                3               0.               0.               0.               0.
             1003                4               0.               0.               0.               0.
             1004                1               0.               0.               0.               0.
             1004                2               0.               0.               0.               0.
             1004                3               0.               0.               0.               0.
             1004                4               0.               0.               0.               0.


  Minimum                                        0.               0.               0.               0.
       At Element                              1004             1004             1004             1004
           Int Pt                                 4                4                4                4

  Maximum                                        0.               0.               0.               0.
       At Element                              1004             1004             1004             1004
           Int Pt                                 4                4                4                4

            Total                                0.               0.               0.               0.


