********************************************************************************
Field Output Report, written Tue Apr 15 10:29:52 2025

Source 1
---------

   ODB: C:/lnms/Vid/4ele/stena-4U_starman.odb
   Step: loading
   Frame: Increment      0: Step Time =    0.000

Loc 1 : Integration point values from source 1

Output sorted by column "Element Label".

Field Output reported at integration points for region: STENA-1.Region_1

          Element              Int            S.S11
            Label               Pt           @Loc 1
----------------------------------------------------
                1                1               0.
                1                2               0.
                1                3               0.
                1                4               0.
                2                1               0.
                2                2               0.
                2                3               0.
                2                4               0.
                3                1               0.
                3                2               0.
                3                3               0.
                3                4               0.
                4                1               0.
                4                2               0.
                4                3               0.
                4                4               0.


  Minimum                                        0.
       At Element                                 4
           Int Pt                                 4

  Maximum                                        0.
       At Element                                 4
           Int Pt                                 4

            Total                                0.


          Element              Int            S.S22
            Label               Pt           @Loc 1
----------------------------------------------------
                1                1               0.
                1                2               0.
                1                3               0.
                1                4               0.
                2                1               0.
                2                2               0.
                2                3               0.
                2                4               0.
                3                1               0.
                3                2               0.
                3                3               0.
                3                4               0.
                4                1               0.
                4                2               0.
                4                3               0.
                4                4               0.


  Minimum                                        0.
       At Element                                 4
           Int Pt                                 4

  Maximum                                        0.
       At Element                                 4
           Int Pt                                 4

            Total                                0.


          Element              Int            S.S33
            Label               Pt           @Loc 1
----------------------------------------------------
                1                1               0.
                1                2               0.
                1                3               0.
                1                4               0.
                2                1               0.
                2                2               0.
                2                3               0.
                2                4               0.
                3                1               0.
                3                2               0.
                3                3               0.
                3                4               0.
                4                1               0.
                4                2               0.
                4                3               0.
                4                4               0.


  Minimum                                        0.
       At Element                                 4
           Int Pt                                 4

  Maximum                                        0.
       At Element                                 4
           Int Pt                                 4

            Total                                0.


          Element              Int            S.S12
            Label               Pt           @Loc 1
----------------------------------------------------
                1                1               0.
                1                2               0.
                1                3               0.
                1                4               0.
                2                1               0.
                2                2               0.
                2                3               0.
                2                4               0.
                3                1               0.
                3                2               0.
                3                3               0.
                3                4               0.
                4                1               0.
                4                2               0.
                4                3               0.
                4                4               0.


  Minimum                                        0.
       At Element                                 4
           Int Pt                                 4

  Maximum                                        0.
       At Element                                 4
           Int Pt                                 4

            Total                                0.


Field Output reported at integration points for region: STENA-1.Region_2

          Element              Int            S.S11
            Label               Pt           @Loc 1
----------------------------------------------------
             1001                1               0.
             1001                2               0.
             1001                3               0.
             1001                4               0.
             1002                1               0.
             1002                2               0.
             1002                3               0.
             1002                4               0.
             1003                1               0.
             1003                2               0.
             1003                3               0.
             1003                4               0.
             1004                1               0.
             1004                2               0.
             1004                3               0.
             1004                4               0.


  Minimum                                        0.
       At Element                              1004
           Int Pt                                 4

  Maximum                                        0.
       At Element                              1004
           Int Pt                                 4

            Total                                0.


          Element              Int            S.S22
            Label               Pt           @Loc 1
----------------------------------------------------
             1001                1               0.
             1001                2               0.
             1001                3               0.
             1001                4               0.
             1002                1               0.
             1002                2               0.
             1002                3               0.
             1002                4               0.
             1003                1               0.
             1003                2               0.
             1003                3               0.
             1003                4               0.
             1004                1               0.
             1004                2               0.
             1004                3               0.
             1004                4               0.


  Minimum                                        0.
       At Element                              1004
           Int Pt                                 4

  Maximum                                        0.
       At Element                              1004
           Int Pt                                 4

            Total                                0.


          Element              Int            S.S33
            Label               Pt           @Loc 1
----------------------------------------------------
             1001                1               0.
             1001                2               0.
             1001                3               0.
             1001                4               0.
             1002                1               0.
             1002                2               0.
             1002                3               0.
             1002                4               0.
             1003                1               0.
             1003                2               0.
             1003                3               0.
             1003                4               0.
             1004                1               0.
             1004                2               0.
             1004                3               0.
             1004                4               0.


  Minimum                                        0.
       At Element                              1004
           Int Pt                                 4

  Maximum                                        0.
       At Element                              1004
           Int Pt                                 4

            Total                                0.


          Element              Int            S.S12
            Label               Pt           @Loc 1
----------------------------------------------------
             1001                1               0.
             1001                2               0.
             1001                3               0.
             1001                4               0.
             1002                1               0.
             1002                2               0.
             1002                3               0.
             1002                4               0.
             1003                1               0.
             1003                2               0.
             1003                3               0.
             1003                4               0.
             1004                1               0.
             1004                2               0.
             1004                3               0.
             1004                4               0.


  Minimum                                        0.
       At Element                              1004
           Int Pt                                 4

  Maximum                                        0.
       At Element                              1004
           Int Pt                                 4

            Total                                0.


********************************************************************************
Field Output Report, written Tue Apr 15 10:29:59 2025

Source 1
---------

   ODB: C:/lnms/Vid/4ele/stena-4U_starman.odb
   Step: loading
   Frame: Increment      1: Step Time =   0.1000

Loc 1 : Integration point values from source 1

Output sorted by column "Element Label".

Field Output reported at integration points for region: STENA-1.Region_1

          Element              Int            S.S11
            Label               Pt           @Loc 1
----------------------------------------------------
                1                1       194.264908
                1                2       194.264908
                1                3       194.264908
                1                4       194.264908
                2                1       194.264908
                2                2       194.264908
                2                3       194.264908
                2                4       194.264908
                3                1       194.264908
                3                2       194.264908
                3                3       194.264908
                3                4       194.264908
                4                1       194.264908
                4                2       194.264908
                4                3       194.264908
                4                4       194.264908


  Minimum                                   194.265
       At Element                                 4
           Int Pt                                 4

  Maximum                                   194.265
       At Element                                 1
           Int Pt                                 1

            Total                    3.10823853E+03


          Element              Int            S.S22
            Label               Pt           @Loc 1
----------------------------------------------------
                1                1  -3.72638344E-03
                1                2  -3.72638344E-03
                1                3  -3.72638344E-03
                1                4  -3.72638344E-03
                2                1  -3.72638344E-03
                2                2  -3.72638344E-03
                2                3  -3.72638344E-03
                2                4  -3.72638344E-03
                3                1  -3.72638344E-03
                3                2  -3.72638344E-03
                3                3  -3.72638344E-03
                3                4  -3.72638344E-03
                4                1  -3.72638344E-03
                4                2  -3.72638344E-03
                4                3  -3.72638344E-03
                4                4  -3.72638344E-03


  Minimum                              -3.72638E-03
       At Element                                 4
           Int Pt                                 4

  Maximum                              -3.72638E-03
       At Element                                 1
           Int Pt                                 1

            Total                   -59.6221350E-03


          Element              Int            S.S33
            Label               Pt           @Loc 1
----------------------------------------------------
                1                1               0.
                1                2               0.
                1                3               0.
                1                4               0.
                2                1               0.
                2                2               0.
                2                3               0.
                2                4               0.
                3                1               0.
                3                2               0.
                3                3               0.
                3                4               0.
                4                1               0.
                4                2               0.
                4                3               0.
                4                4               0.


  Minimum                                        0.
       At Element                                 4
           Int Pt                                 4

  Maximum                                        0.
       At Element                                 4
           Int Pt                                 4

            Total                                0.


          Element              Int            S.S12
            Label               Pt           @Loc 1
----------------------------------------------------
                1                1  -11.7541034E-15
                1                2  -33.5180932E-15
                1                3  -20.7529831E-15
                1                4  -42.5169746E-15
                2                1  -13.2706143E-15
                2                2   7.91760998E-15
                2                3  -29.0186542E-15
                2                4  -7.83043081E-15
                3                1  -12.0097837E-15
                3                2   5.95414483E-15
                3                3  -21.0086634E-15
                3                4  -3.04473510E-15
                4                1   12.7033055E-15
                4                2   6.25471532E-15
                4                3  -3.04473510E-15
                4                4  -9.49332504E-15


  Minimum                               -42.517E-15
       At Element                                 1
           Int Pt                                 4

  Maximum                               12.7033E-15
       At Element                                 4
           Int Pt                                 1

            Total                   -174.433320E-15


Field Output reported at integration points for region: STENA-1.Region_2

          Element              Int            S.S11
            Label               Pt           @Loc 1
----------------------------------------------------
             1001                1               0.
             1001                2               0.
             1001                3               0.
             1001                4               0.
             1002                1               0.
             1002                2               0.
             1002                3               0.
             1002                4               0.
             1003                1               0.
             1003                2               0.
             1003                3               0.
             1003                4               0.
             1004                1               0.
             1004                2               0.
             1004                3               0.
             1004                4               0.


  Minimum                                        0.
       At Element                              1004
           Int Pt                                 4

  Maximum                                        0.
       At Element                              1004
           Int Pt                                 4

            Total                                0.


          Element              Int            S.S22
            Label               Pt           @Loc 1
----------------------------------------------------
             1001                1               0.
             1001                2               0.
             1001                3               0.
             1001                4               0.
             1002                1               0.
             1002                2               0.
             1002                3               0.
             1002                4               0.
             1003                1               0.
             1003                2               0.
             1003                3               0.
             1003                4               0.
             1004                1               0.
             1004                2               0.
             1004                3               0.
             1004                4               0.


  Minimum                                        0.
       At Element                              1004
           Int Pt                                 4

  Maximum                                        0.
       At Element                              1004
           Int Pt                                 4

            Total                                0.


          Element              Int            S.S33
            Label               Pt           @Loc 1
----------------------------------------------------
             1001                1               0.
             1001                2               0.
             1001                3               0.
             1001                4               0.
             1002                1               0.
             1002                2               0.
             1002                3               0.
             1002                4               0.
             1003                1               0.
             1003                2               0.
             1003                3               0.
             1003                4               0.
             1004                1               0.
             1004                2               0.
             1004                3               0.
             1004                4               0.


  Minimum                                        0.
       At Element                              1004
           Int Pt                                 4

  Maximum                                        0.
       At Element                              1004
           Int Pt                                 4

            Total                                0.


          Element              Int            S.S12
            Label               Pt           @Loc 1
----------------------------------------------------
             1001                1               0.
             1001                2               0.
             1001                3               0.
             1001                4               0.
             1002                1               0.
             1002                2               0.
             1002                3               0.
             1002                4               0.
             1003                1               0.
             1003                2               0.
             1003                3               0.
             1003                4               0.
             1004                1               0.
             1004                2               0.
             1004                3               0.
             1004                4               0.


  Minimum                                        0.
       At Element                              1004
           Int Pt                                 4

  Maximum                                        0.
       At Element                              1004
           Int Pt                                 4

            Total                                0.


********************************************************************************
Field Output Report, written Tue Apr 15 10:30:04 2025

Source 1
---------

   ODB: C:/lnms/Vid/4ele/stena-4U_starman.odb
   Step: loading
   Frame: Increment      2: Step Time =   0.2000

Loc 1 : Integration point values from source 1

Output sorted by column "Element Label".

Field Output reported at integration points for region: STENA-1.Region_1

          Element              Int            S.S11
            Label               Pt           @Loc 1
----------------------------------------------------
                1                1       280.808624
                1                2       280.808624
                1                3       280.808624
                1                4       280.808624
                2                1       280.808624
                2                2       280.808624
                2                3       280.808624
                2                4       280.808624
                3                1       280.808624
                3                2       280.808624
                3                3       280.808624
                3                4       280.808624
                4                1       280.808624
                4                2       280.808624
                4                3       280.808624
                4                4       280.808624


  Minimum                                   280.809
       At Element                                 4
           Int Pt                                 4

  Maximum                                   280.809
       At Element                                 1
           Int Pt                                 1

            Total                    4.49293799E+03


          Element              Int            S.S22
            Label               Pt           @Loc 1
----------------------------------------------------
                1                1   35.9969549E-03
                1                2   35.9969549E-03
                1                3   35.9969549E-03
                1                4   35.9969549E-03
                2                1   35.9969549E-03
                2                2   35.9969549E-03
                2                3   35.9969549E-03
                2                4   35.9969549E-03
                3                1   35.9969549E-03
                3                2   35.9969549E-03
                3                3   35.9969549E-03
                3                4   35.9969549E-03
                4                1   35.9969549E-03
                4                2   35.9969549E-03
                4                3   35.9969549E-03
                4                4   35.9969549E-03


  Minimum                                35.997E-03
       At Element                                 4
           Int Pt                                 4

  Maximum                                35.997E-03
       At Element                                 1
           Int Pt                                 1

            Total                    575.951278E-03


          Element              Int            S.S33
            Label               Pt           @Loc 1
----------------------------------------------------
                1                1               0.
                1                2               0.
                1                3               0.
                1                4               0.
                2                1               0.
                2                2               0.
                2                3               0.
                2                4               0.
                3                1               0.
                3                2               0.
                3                3               0.
                3                4               0.
                4                1               0.
                4                2               0.
                4                3               0.
                4                4               0.


  Minimum                                        0.
       At Element                                 4
           Int Pt                                 4

  Maximum                                        0.
       At Element                                 4
           Int Pt                                 4

            Total                                0.


          Element              Int            S.S12
            Label               Pt           @Loc 1
----------------------------------------------------
                1                1  -12.0429357E-15
                1                2  -47.9845520E-15
                1                3  -12.1677291E-15
                1                4  -48.1093470E-15
                2                1  -38.5295569E-15
                2                2  -17.2306254E-15
                2                3  -47.9221562E-15
                2                4  -26.6232247E-15
                3                1   7.75340756E-15
                3                2   15.9224813E-15
                3                3   7.62861420E-15
                3                4   15.7976879E-15
                4                1   12.7937381E-15
                4                2   9.94954461E-15
                4                3   2.90833527E-15
                4                4   64.1410604E-18


  Minimum                              -48.1093E-15
       At Element                                 1
           Int Pt                                 4

  Maximum                               15.9225E-15
       At Element                                 3
           Int Pt                                 2

            Total                   -177.792177E-15


Field Output reported at integration points for region: STENA-1.Region_2

          Element              Int            S.S11
            Label               Pt           @Loc 1
----------------------------------------------------
             1001                1               0.
             1001                2               0.
             1001                3               0.
             1001                4               0.
             1002                1               0.
             1002                2               0.
             1002                3               0.
             1002                4               0.
             1003                1               0.
             1003                2               0.
             1003                3               0.
             1003                4               0.
             1004                1               0.
             1004                2               0.
             1004                3               0.
             1004                4               0.


  Minimum                                        0.
       At Element                              1004
           Int Pt                                 4

  Maximum                                        0.
       At Element                              1004
           Int Pt                                 4

            Total                                0.


          Element              Int            S.S22
            Label               Pt           @Loc 1
----------------------------------------------------
             1001                1               0.
             1001                2               0.
             1001                3               0.
             1001                4               0.
             1002                1               0.
             1002                2               0.
             1002                3               0.
             1002                4               0.
             1003                1               0.
             1003                2               0.
             1003                3               0.
             1003                4               0.
             1004                1               0.
             1004                2               0.
             1004                3               0.
             1004                4               0.


  Minimum                                        0.
       At Element                              1004
           Int Pt                                 4

  Maximum                                        0.
       At Element                              1004
           Int Pt                                 4

            Total                                0.


          Element              Int            S.S33
            Label               Pt           @Loc 1
----------------------------------------------------
             1001                1               0.
             1001                2               0.
             1001                3               0.
             1001                4               0.
             1002                1               0.
             1002                2               0.
             1002                3               0.
             1002                4               0.
             1003                1               0.
             1003                2               0.
             1003                3               0.
             1003                4               0.
             1004                1               0.
             1004                2               0.
             1004                3               0.
             1004                4               0.


  Minimum                                        0.
       At Element                              1004
           Int Pt                                 4

  Maximum                                        0.
       At Element                              1004
           Int Pt                                 4

            Total                                0.


          Element              Int            S.S12
            Label               Pt           @Loc 1
----------------------------------------------------
             1001                1               0.
             1001                2               0.
             1001                3               0.
             1001                4               0.
             1002                1               0.
             1002                2               0.
             1002                3               0.
             1002                4               0.
             1003                1               0.
             1003                2               0.
             1003                3               0.
             1003                4               0.
             1004                1               0.
             1004                2               0.
             1004                3               0.
             1004                4               0.


  Minimum                                        0.
       At Element                              1004
           Int Pt                                 4

  Maximum                                        0.
       At Element                              1004
           Int Pt                                 4

            Total                                0.


********************************************************************************
Field Output Report, written Tue Apr 15 10:30:10 2025

Source 1
---------

   ODB: C:/lnms/Vid/4ele/stena-4U_starman.odb
   Step: loading
   Frame: Increment      3: Step Time =   0.3000

Loc 1 : Integration point values from source 1

Output sorted by column "Element Label".

Field Output reported at integration points for region: STENA-1.Region_1

          Element              Int            S.S11
            Label               Pt           @Loc 1
----------------------------------------------------
                1                1       360.420837
                1                2       360.420837
                1                3       360.420837
                1                4       360.420837
                2                1       360.420837
                2                2       360.420837
                2                3       360.420837
                2                4       360.420837
                3                1       360.420837
                3                2       360.420837
                3                3       360.420837
                3                4       360.420837
                4                1       360.420837
                4                2       360.420837
                4                3       360.420837
                4                4       360.420837


  Minimum                                   360.421
       At Element                                 4
           Int Pt                                 4

  Maximum                                   360.421
       At Element                                 1
           Int Pt                                 1

            Total                    5.76673340E+03


          Element              Int            S.S22
            Label               Pt           @Loc 1
----------------------------------------------------
                1                1   56.4863347E-03
                1                2   56.4863347E-03
                1                3   56.4863347E-03
                1                4   56.4863347E-03
                2                1   56.4863347E-03
                2                2   56.4863347E-03
                2                3   56.4863347E-03
                2                4   56.4863347E-03
                3                1   56.4863347E-03
                3                2   56.4863347E-03
                3                3   56.4863347E-03
                3                4   56.4863347E-03
                4                1   56.4863347E-03
                4                2   56.4863347E-03
                4                3   56.4863347E-03
                4                4   56.4863347E-03


  Minimum                               56.4863E-03
       At Element                                 1
           Int Pt                                 1

  Maximum                               56.4863E-03
       At Element                                 4
           Int Pt                                 4

            Total                    903.781354E-03


          Element              Int            S.S33
            Label               Pt           @Loc 1
----------------------------------------------------
                1                1               0.
                1                2               0.
                1                3               0.
                1                4               0.
                2                1               0.
                2                2               0.
                2                3               0.
                2                4               0.
                3                1               0.
                3                2               0.
                3                3               0.
                3                4               0.
                4                1               0.
                4                2               0.
                4                3               0.
                4                4               0.


  Minimum                                        0.
       At Element                                 4
           Int Pt                                 4

  Maximum                                        0.
       At Element                                 4
           Int Pt                                 4

            Total                                0.


          Element              Int            S.S12
            Label               Pt           @Loc 1
----------------------------------------------------
                1                1  -1.39295267E-15
                1                2  -7.12263991E-15
                1                3   25.3561617E-15
                1                4   19.6264751E-15
                2                1  -40.5759275E-15
                2                2  -23.6777100E-15
                2                3  -18.5793374E-15
                2                4  -1.68112122E-15
                3                1   47.8050488E-15
                3                2   13.6114087E-15
                3                3   76.9588115E-15
                3                4   42.7651756E-15
                4                1   5.22481855E-15
                4                2   10.2082132E-15
                4                3   34.7611005E-15
                4                4   39.7444935E-15


  Minimum                              -40.5759E-15
       At Element                                 2
           Int Pt                                 1

  Maximum                               76.9588E-15
       At Element                                 3
           Int Pt                                 3

            Total                    223.032018E-15


Field Output reported at integration points for region: STENA-1.Region_2

          Element              Int            S.S11
            Label               Pt           @Loc 1
----------------------------------------------------
             1001                1               0.
             1001                2               0.
             1001                3               0.
             1001                4               0.
             1002                1               0.
             1002                2               0.
             1002                3               0.
             1002                4               0.
             1003                1               0.
             1003                2               0.
             1003                3               0.
             1003                4               0.
             1004                1               0.
             1004                2               0.
             1004                3               0.
             1004                4               0.


  Minimum                                        0.
       At Element                              1004
           Int Pt                                 4

  Maximum                                        0.
       At Element                              1004
           Int Pt                                 4

            Total                                0.


          Element              Int            S.S22
            Label               Pt           @Loc 1
----------------------------------------------------
             1001                1               0.
             1001                2               0.
             1001                3               0.
             1001                4               0.
             1002                1               0.
             1002                2               0.
             1002                3               0.
             1002                4               0.
             1003                1               0.
             1003                2               0.
             1003                3               0.
             1003                4               0.
             1004                1               0.
             1004                2               0.
             1004                3               0.
             1004                4               0.


  Minimum                                        0.
       At Element                              1004
           Int Pt                                 4

  Maximum                                        0.
       At Element                              1004
           Int Pt                                 4

            Total                                0.


          Element              Int            S.S33
            Label               Pt           @Loc 1
----------------------------------------------------
             1001                1               0.
             1001                2               0.
             1001                3               0.
             1001                4               0.
             1002                1               0.
             1002                2               0.
             1002                3               0.
             1002                4               0.
             1003                1               0.
             1003                2               0.
             1003                3               0.
             1003                4               0.
             1004                1               0.
             1004                2               0.
             1004                3               0.
             1004                4               0.


  Minimum                                        0.
       At Element                              1004
           Int Pt                                 4

  Maximum                                        0.
       At Element                              1004
           Int Pt                                 4

            Total                                0.


          Element              Int            S.S12
            Label               Pt           @Loc 1
----------------------------------------------------
             1001                1               0.
             1001                2               0.
             1001                3               0.
             1001                4               0.
             1002                1               0.
             1002                2               0.
             1002                3               0.
             1002                4               0.
             1003                1               0.
             1003                2               0.
             1003                3               0.
             1003                4               0.
             1004                1               0.
             1004                2               0.
             1004                3               0.
             1004                4               0.


  Minimum                                        0.
       At Element                              1004
           Int Pt                                 4

  Maximum                                        0.
       At Element                              1004
           Int Pt                                 4

            Total                                0.


********************************************************************************
Field Output Report, written Tue Apr 15 10:30:14 2025

Source 1
---------

   ODB: C:/lnms/Vid/4ele/stena-4U_starman.odb
   Step: loading
   Frame: Increment      4: Step Time =   0.4000

Loc 1 : Integration point values from source 1

Output sorted by column "Element Label".

Field Output reported at integration points for region: STENA-1.Region_1

          Element              Int            S.S11
            Label               Pt           @Loc 1
----------------------------------------------------
                1                1       434.129944
                1                2       434.129944
                1                3       434.129944
                1                4       434.129944
                2                1       434.129944
                2                2       434.129944
                2                3       434.129944
                2                4       434.129944
                3                1       434.129944
                3                2       434.129944
                3                3       434.129944
                3                4       434.129944
                4                1       434.129944
                4                2       434.129944
                4                3       434.129944
                4                4       434.129944


  Minimum                                    434.13
       At Element                                 4
           Int Pt                                 4

  Maximum                                    434.13
       At Element                                 1
           Int Pt                                 1

            Total                    6.94607910E+03


          Element              Int            S.S22
            Label               Pt           @Loc 1
----------------------------------------------------
                1                1   63.6011511E-03
                1                2   63.6011511E-03
                1                3   63.6011511E-03
                1                4   63.6011511E-03
                2                1   63.6011511E-03
                2                2   63.6011511E-03
                2                3   63.6011511E-03
                2                4   63.6011511E-03
                3                1   63.6011511E-03
                3                2   63.6011511E-03
                3                3   63.6011511E-03
                3                4   63.6011511E-03
                4                1   63.6011511E-03
                4                2   63.6011511E-03
                4                3   63.6011511E-03
                4                4   63.6011511E-03


  Minimum                               63.6012E-03
       At Element                                 4
           Int Pt                                 4

  Maximum                               63.6012E-03
       At Element                                 1
           Int Pt                                 1

            Total                        1.01761842


          Element              Int            S.S33
            Label               Pt           @Loc 1
----------------------------------------------------
                1                1               0.
                1                2               0.
                1                3               0.
                1                4               0.
                2                1               0.
                2                2               0.
                2                3               0.
                2                4               0.
                3                1               0.
                3                2               0.
                3                3               0.
                3                4               0.
                4                1               0.
                4                2               0.
                4                3               0.
                4                4               0.


  Minimum                                        0.
       At Element                                 4
           Int Pt                                 4

  Maximum                                        0.
       At Element                                 4
           Int Pt                                 4

            Total                                0.


          Element              Int            S.S12
            Label               Pt           @Loc 1
----------------------------------------------------
                1                1  -7.82863849E-15
                1                2  -49.8456460E-15
                1                3   11.3295502E-15
                1                4  -30.6874548E-15
                2                1  -39.3576129E-15
                2                2  -32.1004345E-15
                2                3   16.7747574E-15
                2                4   24.0319358E-15
                3                1   30.4834757E-15
                3                2   6.55885605E-15
                3                3   55.2005985E-15
                3                4   31.2759767E-15
                4                1   54.7631669E-15
                4                2   28.9649320E-15
                4                3   39.1388582E-15
                4                4   13.3406207E-15


  Minimum                              -49.8456E-15
       At Element                                 1
           Int Pt                                 2

  Maximum                               55.2006E-15
       At Element                                 3
           Int Pt                                 3

            Total                    152.042941E-15


Field Output reported at integration points for region: STENA-1.Region_2

          Element              Int            S.S11
            Label               Pt           @Loc 1
----------------------------------------------------
             1001                1               0.
             1001                2               0.
             1001                3               0.
             1001                4               0.
             1002                1               0.
             1002                2               0.
             1002                3               0.
             1002                4               0.
             1003                1               0.
             1003                2               0.
             1003                3               0.
             1003                4               0.
             1004                1               0.
             1004                2               0.
             1004                3               0.
             1004                4               0.


  Minimum                                        0.
       At Element                              1004
           Int Pt                                 4

  Maximum                                        0.
       At Element                              1004
           Int Pt                                 4

            Total                                0.


          Element              Int            S.S22
            Label               Pt           @Loc 1
----------------------------------------------------
             1001                1               0.
             1001                2               0.
             1001                3               0.
             1001                4               0.
             1002                1               0.
             1002                2               0.
             1002                3               0.
             1002                4               0.
             1003                1               0.
             1003                2               0.
             1003                3               0.
             1003                4               0.
             1004                1               0.
             1004                2               0.
             1004                3               0.
             1004                4               0.


  Minimum                                        0.
       At Element                              1004
           Int Pt                                 4

  Maximum                                        0.
       At Element                              1004
           Int Pt                                 4

            Total                                0.


          Element              Int            S.S33
            Label               Pt           @Loc 1
----------------------------------------------------
             1001                1               0.
             1001                2               0.
             1001                3               0.
             1001                4               0.
             1002                1               0.
             1002                2               0.
             1002                3               0.
             1002                4               0.
             1003                1               0.
             1003                2               0.
             1003                3               0.
             1003                4               0.
             1004                1               0.
             1004                2               0.
             1004                3               0.
             1004                4               0.


  Minimum                                        0.
       At Element                              1004
           Int Pt                                 4

  Maximum                                        0.
       At Element                              1004
           Int Pt                                 4

            Total                                0.


          Element              Int            S.S12
            Label               Pt           @Loc 1
----------------------------------------------------
             1001                1               0.
             1001                2               0.
             1001                3               0.
             1001                4               0.
             1002                1               0.
             1002                2               0.
             1002                3               0.
             1002                4               0.
             1003                1               0.
             1003                2               0.
             1003                3               0.
             1003                4               0.
             1004                1               0.
             1004                2               0.
             1004                3               0.
             1004                4               0.


  Minimum                                        0.
       At Element                              1004
           Int Pt                                 4

  Maximum                                        0.
       At Element                              1004
           Int Pt                                 4

            Total                                0.


********************************************************************************
Field Output Report, written Tue Apr 15 10:30:19 2025

Source 1
---------

   ODB: C:/lnms/Vid/4ele/stena-4U_starman.odb
   Step: loading
   Frame: Increment      5: Step Time =   0.5000

Loc 1 : Integration point values from source 1

Output sorted by column "Element Label".

Field Output reported at integration points for region: STENA-1.Region_1

          Element              Int            S.S11
            Label               Pt           @Loc 1
----------------------------------------------------
                1                1       502.753540
                1                2       502.753540
                1                3       502.753540
                1                4       502.753540
                2                1       502.753540
                2                2       502.753540
                2                3       502.753540
                2                4       502.753540
                3                1       502.753540
                3                2       502.753540
                3                3       502.753540
                3                4       502.753540
                4                1       502.753540
                4                2       502.753540
                4                3       502.753540
                4                4       502.753540


  Minimum                                   502.754
       At Element                                 4
           Int Pt                                 4

  Maximum                                   502.754
       At Element                                 1
           Int Pt                                 1

            Total                    8.04405664E+03


          Element              Int            S.S22
            Label               Pt           @Loc 1
----------------------------------------------------
                1                1   65.9995228E-03
                1                2   65.9995228E-03
                1                3   65.9995228E-03
                1                4   65.9995228E-03
                2                1   65.9995228E-03
                2                2   65.9995228E-03
                2                3   65.9995228E-03
                2                4   65.9995228E-03
                3                1   65.9995228E-03
                3                2   65.9995228E-03
                3                3   65.9995228E-03
                3                4   65.9995228E-03
                4                1   65.9995228E-03
                4                2   65.9995228E-03
                4                3   65.9995228E-03
                4                4   65.9995228E-03


  Minimum                               65.9995E-03
       At Element                                 1
           Int Pt                                 1

  Maximum                               65.9995E-03
       At Element                                 4
           Int Pt                                 4

            Total                        1.05599236


          Element              Int            S.S33
            Label               Pt           @Loc 1
----------------------------------------------------
                1                1               0.
                1                2               0.
                1                3               0.
                1                4               0.
                2                1               0.
                2                2               0.
                2                3               0.
                2                4               0.
                3                1               0.
                3                2               0.
                3                3               0.
                3                4               0.
                4                1               0.
                4                2               0.
                4                3               0.
                4                4               0.


  Minimum                                        0.
       At Element                                 4
           Int Pt                                 4

  Maximum                                        0.
       At Element                                 4
           Int Pt                                 4

            Total                                0.


          Element              Int            S.S12
            Label               Pt           @Loc 1
----------------------------------------------------
                1                1  -10.0909508E-15
                1                2  -36.8580898E-15
                1                3  -9.50147689E-15
                1                4  -36.2686159E-15
                2                1  -9.41601381E-15
                2                2   27.1506552E-15
                2                3  -46.1665448E-15
                2                4  -9.59987755E-15
                3                1  -10.4203442E-15
                3                2   28.2438173E-15
                3                3  -43.7346794E-15
                3                4  -5.07051668E-15
                4                1  -27.9470339E-15
                4                2  -23.6459496E-15
                4                3  -25.5882047E-15
                4                4  -21.2871187E-15


  Minimum                              -46.1665E-15
       At Element                                 2
           Int Pt                                 3

  Maximum                               28.2438E-15
       At Element                                 3
           Int Pt                                 2

            Total                   -260.200944E-15


Field Output reported at integration points for region: STENA-1.Region_2

          Element              Int            S.S11
            Label               Pt           @Loc 1
----------------------------------------------------
             1001                1               0.
             1001                2               0.
             1001                3               0.
             1001                4               0.
             1002                1               0.
             1002                2               0.
             1002                3               0.
             1002                4               0.
             1003                1               0.
             1003                2               0.
             1003                3               0.
             1003                4               0.
             1004                1               0.
             1004                2               0.
             1004                3               0.
             1004                4               0.


  Minimum                                        0.
       At Element                              1004
           Int Pt                                 4

  Maximum                                        0.
       At Element                              1004
           Int Pt                                 4

            Total                                0.


          Element              Int            S.S22
            Label               Pt           @Loc 1
----------------------------------------------------
             1001                1               0.
             1001                2               0.
             1001                3               0.
             1001                4               0.
             1002                1               0.
             1002                2               0.
             1002                3               0.
             1002                4               0.
             1003                1               0.
             1003                2               0.
             1003                3               0.
             1003                4               0.
             1004                1               0.
             1004                2               0.
             1004                3               0.
             1004                4               0.


  Minimum                                        0.
       At Element                              1004
           Int Pt                                 4

  Maximum                                        0.
       At Element                              1004
           Int Pt                                 4

            Total                                0.


          Element              Int            S.S33
            Label               Pt           @Loc 1
----------------------------------------------------
             1001                1               0.
             1001                2               0.
             1001                3               0.
             1001                4               0.
             1002                1               0.
             1002                2               0.
             1002                3               0.
             1002                4               0.
             1003                1               0.
             1003                2               0.
             1003                3               0.
             1003                4               0.
             1004                1               0.
             1004                2               0.
             1004                3               0.
             1004                4               0.


  Minimum                                        0.
       At Element                              1004
           Int Pt                                 4

  Maximum                                        0.
       At Element                              1004
           Int Pt                                 4

            Total                                0.


          Element              Int            S.S12
            Label               Pt           @Loc 1
----------------------------------------------------
             1001                1               0.
             1001                2               0.
             1001                3               0.
             1001                4               0.
             1002                1               0.
             1002                2               0.
             1002                3               0.
             1002                4               0.
             1003                1               0.
             1003                2               0.
             1003                3               0.
             1003                4               0.
             1004                1               0.
             1004                2               0.
             1004                3               0.
             1004                4               0.


  Minimum                                        0.
       At Element                              1004
           Int Pt                                 4

  Maximum                                        0.
       At Element                              1004
           Int Pt                                 4

            Total                                0.


********************************************************************************
Field Output Report, written Tue Apr 15 10:30:24 2025

Source 1
---------

   ODB: C:/lnms/Vid/4ele/stena-4U_starman.odb
   Step: loading
   Frame: Increment      6: Step Time =   0.6000

Loc 1 : Integration point values from source 1

Output sorted by column "Element Label".

Field Output reported at integration points for region: STENA-1.Region_1

          Element              Int            S.S11
            Label               Pt           @Loc 1
----------------------------------------------------
                1                1       566.948730
                1                2       566.948730
                1                3       566.948730
                1                4       566.948730
                2                1       566.948730
                2                2       566.948730
                2                3       566.948730
                2                4       566.948730
                3                1       566.948730
                3                2       566.948730
                3                3       566.948730
                3                4       566.948730
                4                1       566.948730
                4                2       566.948730
                4                3       566.948730
                4                4       566.948730


  Minimum                                   566.949
       At Element                                 4
           Int Pt                                 4

  Maximum                                   566.949
       At Element                                 1
           Int Pt                                 1

            Total                    9.07117969E+03


          Element              Int            S.S22
            Label               Pt           @Loc 1
----------------------------------------------------
                1                1   66.0673752E-03
                1                2   66.0673752E-03
                1                3   66.0673752E-03
                1                4   66.0673752E-03
                2                1   66.0673752E-03
                2                2   66.0673752E-03
                2                3   66.0673752E-03
                2                4   66.0673752E-03
                3                1   66.0673752E-03
                3                2   66.0673752E-03
                3                3   66.0673752E-03
                3                4   66.0673752E-03
                4                1   66.0673752E-03
                4                2   66.0673752E-03
                4                3   66.0673752E-03
                4                4   66.0673752E-03


  Minimum                               66.0674E-03
       At Element                                 4
           Int Pt                                 4

  Maximum                               66.0674E-03
       At Element                                 1
           Int Pt                                 1

            Total                        1.05707800


          Element              Int            S.S33
            Label               Pt           @Loc 1
----------------------------------------------------
                1                1               0.
                1                2               0.
                1                3               0.
                1                4               0.
                2                1               0.
                2                2               0.
                2                3               0.
                2                4               0.
                3                1               0.
                3                2               0.
                3                3               0.
                3                4               0.
                4                1               0.
                4                2               0.
                4                3               0.
                4                4               0.


  Minimum                                        0.
       At Element                                 4
           Int Pt                                 4

  Maximum                                        0.
       At Element                                 4
           Int Pt                                 4

            Total                                0.


          Element              Int            S.S12
            Label               Pt           @Loc 1
----------------------------------------------------
                1                1  -371.929705E-18
                1                2  -1.35850617E-15
                1                3  -350.203019E-18
                1                4  -1.33677946E-15
                2                1   77.7435367E-15
                2                2   29.1366188E-15
                2                3   61.9677988E-15
                2                4   13.3608826E-15
                3                1  -384.070414E-18
                3                2  -47.7336439E-15
                3                3  -14.3458396E-15
                3                4  -61.6954133E-15
                4                1   7.49773998E-15
                4                2   6.47623688E-15
                4                3   13.9516203E-15
                4                4   12.9301172E-15


  Minimum                              -61.6954E-15
       At Element                                 3
           Int Pt                                 4

  Maximum                               77.7435E-15
       At Element                                 2
           Int Pt                                 1

            Total                    95.4881656E-15


Field Output reported at integration points for region: STENA-1.Region_2

          Element              Int            S.S11
            Label               Pt           @Loc 1
----------------------------------------------------
             1001                1               0.
             1001                2               0.
             1001                3               0.
             1001                4               0.
             1002                1               0.
             1002                2               0.
             1002                3               0.
             1002                4               0.
             1003                1               0.
             1003                2               0.
             1003                3               0.
             1003                4               0.
             1004                1               0.
             1004                2               0.
             1004                3               0.
             1004                4               0.


  Minimum                                        0.
       At Element                              1004
           Int Pt                                 4

  Maximum                                        0.
       At Element                              1004
           Int Pt                                 4

            Total                                0.


          Element              Int            S.S22
            Label               Pt           @Loc 1
----------------------------------------------------
             1001                1               0.
             1001                2               0.
             1001                3               0.
             1001                4               0.
             1002                1               0.
             1002                2               0.
             1002                3               0.
             1002                4               0.
             1003                1               0.
             1003                2               0.
             1003                3               0.
             1003                4               0.
             1004                1               0.
             1004                2               0.
             1004                3               0.
             1004                4               0.


  Minimum                                        0.
       At Element                              1004
           Int Pt                                 4

  Maximum                                        0.
       At Element                              1004
           Int Pt                                 4

            Total                                0.


          Element              Int            S.S33
            Label               Pt           @Loc 1
----------------------------------------------------
             1001                1               0.
             1001                2               0.
             1001                3               0.
             1001                4               0.
             1002                1               0.
             1002                2               0.
             1002                3               0.
             1002                4               0.
             1003                1               0.
             1003                2               0.
             1003                3               0.
             1003                4               0.
             1004                1               0.
             1004                2               0.
             1004                3               0.
             1004                4               0.


  Minimum                                        0.
       At Element                              1004
           Int Pt                                 4

  Maximum                                        0.
       At Element                              1004
           Int Pt                                 4

            Total                                0.


          Element              Int            S.S12
            Label               Pt           @Loc 1
----------------------------------------------------
             1001                1               0.
             1001                2               0.
             1001                3               0.
             1001                4               0.
             1002                1               0.
             1002                2               0.
             1002                3               0.
             1002                4               0.
             1003                1               0.
             1003                2               0.
             1003                3               0.
             1003                4               0.
             1004                1               0.
             1004                2               0.
             1004                3               0.
             1004                4               0.


  Minimum                                        0.
       At Element                              1004
           Int Pt                                 4

  Maximum                                        0.
       At Element                              1004
           Int Pt                                 4

            Total                                0.


********************************************************************************
Field Output Report, written Tue Apr 15 10:30:28 2025

Source 1
---------

   ODB: C:/lnms/Vid/4ele/stena-4U_starman.odb
   Step: loading
   Frame: Increment      7: Step Time =   0.7000

Loc 1 : Integration point values from source 1

Output sorted by column "Element Label".

Field Output reported at integration points for region: STENA-1.Region_1

          Element              Int            S.S11
            Label               Pt           @Loc 1
----------------------------------------------------
                1                1       627.252747
                1                2       627.252747
                1                3       627.252747
                1                4       627.252747
                2                1       627.252747
                2                2       627.252747
                2                3       627.252747
                2                4       627.252747
                3                1       627.252747
                3                2       627.252747
                3                3       627.252747
                3                4       627.252747
                4                1       627.252747
                4                2       627.252747
                4                3       627.252747
                4                4       627.252747


  Minimum                                   627.253
       At Element                                 4
           Int Pt                                 4

  Maximum                                   627.253
       At Element                                 1
           Int Pt                                 1

            Total                    10.0360439E+03


          Element              Int            S.S22
            Label               Pt           @Loc 1
----------------------------------------------------
                1                1   65.0179982E-03
                1                2   65.0179982E-03
                1                3   65.0179982E-03
                1                4   65.0179982E-03
                2                1   65.0179982E-03
                2                2   65.0179982E-03
                2                3   65.0179982E-03
                2                4   65.0179982E-03
                3                1   65.0179982E-03
                3                2   65.0179982E-03
                3                3   65.0179982E-03
                3                4   65.0179982E-03
                4                1   65.0179982E-03
                4                2   65.0179982E-03
                4                3   65.0179982E-03
                4                4   65.0179982E-03


  Minimum                                65.018E-03
       At Element                                 4
           Int Pt                                 4

  Maximum                                65.018E-03
       At Element                                 4
           Int Pt                                 1

            Total                        1.04028797


          Element              Int            S.S33
            Label               Pt           @Loc 1
----------------------------------------------------
                1                1               0.
                1                2               0.
                1                3               0.
                1                4               0.
                2                1               0.
                2                2               0.
                2                3               0.
                2                4               0.
                3                1               0.
                3                2               0.
                3                3               0.
                3                4               0.
                4                1               0.
                4                2               0.
                4                3               0.
                4                4               0.


  Minimum                                        0.
       At Element                                 4
           Int Pt                                 4

  Maximum                                        0.
       At Element                                 4
           Int Pt                                 4

            Total                                0.


          Element              Int            S.S12
            Label               Pt           @Loc 1
----------------------------------------------------
                1                1  -15.7688990E-15
                1                2   41.2614008E-15
                1                3  -63.0265358E-15
                1                4  -5.99623560E-15
                2                1   115.554688E-15
                2                2   12.2433064E-15
                2                3   76.3673521E-15
                2                4  -26.9440367E-15
                3                1  -35.6773394E-15
                3                2   81.7769043E-15
                3                3  -81.7877192E-15
                3                4   35.6665211E-15
                4                1   132.286611E-15
                4                2  -31.3960080E-15
                4                3  -232.478277E-18
                4                4  -163.915092E-15


  Minimum                              -163.915E-15
       At Element                                 4
           Int Pt                                 4

  Maximum                               132.287E-15
       At Element                                 4
           Int Pt                                 1

            Total                    70.4124391E-15


Field Output reported at integration points for region: STENA-1.Region_2

          Element              Int            S.S11
            Label               Pt           @Loc 1
----------------------------------------------------
             1001                1               0.
             1001                2               0.
             1001                3               0.
             1001                4               0.
             1002                1               0.
             1002                2               0.
             1002                3               0.
             1002                4               0.
             1003                1               0.
             1003                2               0.
             1003                3               0.
             1003                4               0.
             1004                1               0.
             1004                2               0.
             1004                3               0.
             1004                4               0.


  Minimum                                        0.
       At Element                              1004
           Int Pt                                 4

  Maximum                                        0.
       At Element                              1004
           Int Pt                                 4

            Total                                0.


          Element              Int            S.S22
            Label               Pt           @Loc 1
----------------------------------------------------
             1001                1               0.
             1001                2               0.
             1001                3               0.
             1001                4               0.
             1002                1               0.
             1002                2               0.
             1002                3               0.
             1002                4               0.
             1003                1               0.
             1003                2               0.
             1003                3               0.
             1003                4               0.
             1004                1               0.
             1004                2               0.
             1004                3               0.
             1004                4               0.


  Minimum                                        0.
       At Element                              1004
           Int Pt                                 4

  Maximum                                        0.
       At Element                              1004
           Int Pt                                 4

            Total                                0.


          Element              Int            S.S33
            Label               Pt           @Loc 1
----------------------------------------------------
             1001                1               0.
             1001                2               0.
             1001                3               0.
             1001                4               0.
             1002                1               0.
             1002                2               0.
             1002                3               0.
             1002                4               0.
             1003                1               0.
             1003                2               0.
             1003                3               0.
             1003                4               0.
             1004                1               0.
             1004                2               0.
             1004                3               0.
             1004                4               0.


  Minimum                                        0.
       At Element                              1004
           Int Pt                                 4

  Maximum                                        0.
       At Element                              1004
           Int Pt                                 4

            Total                                0.


          Element              Int            S.S12
            Label               Pt           @Loc 1
----------------------------------------------------
             1001                1               0.
             1001                2               0.
             1001                3               0.
             1001                4               0.
             1002                1               0.
             1002                2               0.
             1002                3               0.
             1002                4               0.
             1003                1               0.
             1003                2               0.
             1003                3               0.
             1003                4               0.
             1004                1               0.
             1004                2               0.
             1004                3               0.
             1004                4               0.


  Minimum                                        0.
       At Element                              1004
           Int Pt                                 4

  Maximum                                        0.
       At Element                              1004
           Int Pt                                 4

            Total                                0.


********************************************************************************
Field Output Report, written Tue Apr 15 10:30:32 2025

Source 1
---------

   ODB: C:/lnms/Vid/4ele/stena-4U_starman.odb
   Step: loading
   Frame: Increment      8: Step Time =   0.8000

Loc 1 : Integration point values from source 1

Output sorted by column "Element Label".

Field Output reported at integration points for region: STENA-1.Region_1

          Element              Int            S.S11
            Label               Pt           @Loc 1
----------------------------------------------------
                1                1       684.110535
                1                2       684.110535
                1                3       684.110535
                1                4       684.110535
                2                1       684.110535
                2                2       684.110535
                2                3       684.110535
                2                4       684.110535
                3                1       684.110535
                3                2       684.110535
                3                3       684.110535
                3                4       684.110535
                4                1       684.110535
                4                2       684.110535
                4                3       684.110535
                4                4       684.110535


  Minimum                                   684.111
       At Element                                 4
           Int Pt                                 4

  Maximum                                   684.111
       At Element                                 1
           Int Pt                                 1

            Total                    10.9457686E+03


          Element              Int            S.S22
            Label               Pt           @Loc 1
----------------------------------------------------
                1                1   63.4646341E-03
                1                2   63.4646341E-03
                1                3   63.4646341E-03
                1                4   63.4646341E-03
                2                1   63.4646341E-03
                2                2   63.4646341E-03
                2                3   63.4646341E-03
                2                4   63.4646341E-03
                3                1   63.4646341E-03
                3                2   63.4646341E-03
                3                3   63.4646341E-03
                3                4   63.4646341E-03
                4                1   63.4646341E-03
                4                2   63.4646341E-03
                4                3   63.4646341E-03
                4                4   63.4646341E-03


  Minimum                               63.4646E-03
       At Element                                 1
           Int Pt                                 1

  Maximum                               63.4646E-03
       At Element                                 4
           Int Pt                                 4

            Total                        1.01543415


          Element              Int            S.S33
            Label               Pt           @Loc 1
----------------------------------------------------
                1                1               0.
                1                2               0.
                1                3               0.
                1                4               0.
                2                1               0.
                2                2               0.
                2                3               0.
                2                4               0.
                3                1               0.
                3                2               0.
                3                3               0.
                3                4               0.
                4                1               0.
                4                2               0.
                4                3               0.
                4                4               0.


  Minimum                                        0.
       At Element                                 4
           Int Pt                                 4

  Maximum                                        0.
       At Element                                 4
           Int Pt                                 4

            Total                                0.


          Element              Int            S.S12
            Label               Pt           @Loc 1
----------------------------------------------------
                1                1  -73.6920358E-15
                1                2  -163.851287E-15
                1                3  -138.132886E-15
                1                4  -228.292130E-15
                2                1  -21.3110559E-15
                2                2  -25.9330894E-15
                2                3  -108.114913E-15
                2                4  -112.736948E-15
                3                1  -64.2717758E-15
                3                2   17.1298675E-15
                3                3  -131.716673E-15
                3                4  -50.3150276E-15
                4                1   91.3826916E-15
                4                2  -73.3609340E-15
                4                3   99.6588202E-15
                4                4  -65.0848055E-15


  Minimum                              -228.292E-15
       At Element                                 1
           Int Pt                                 4

  Maximum                               99.6588E-15
       At Element                                 4
           Int Pt                                 3

            Total                   -1.04864218E-12


Field Output reported at integration points for region: STENA-1.Region_2

          Element              Int            S.S11
            Label               Pt           @Loc 1
----------------------------------------------------
             1001                1               0.
             1001                2               0.
             1001                3               0.
             1001                4               0.
             1002                1               0.
             1002                2               0.
             1002                3               0.
             1002                4               0.
             1003                1               0.
             1003                2               0.
             1003                3               0.
             1003                4               0.
             1004                1               0.
             1004                2               0.
             1004                3               0.
             1004                4               0.


  Minimum                                        0.
       At Element                              1004
           Int Pt                                 4

  Maximum                                        0.
       At Element                              1004
           Int Pt                                 4

            Total                                0.


          Element              Int            S.S22
            Label               Pt           @Loc 1
----------------------------------------------------
             1001                1               0.
             1001                2               0.
             1001                3               0.
             1001                4               0.
             1002                1               0.
             1002                2               0.
             1002                3               0.
             1002                4               0.
             1003                1               0.
             1003                2               0.
             1003                3               0.
             1003                4               0.
             1004                1               0.
             1004                2               0.
             1004                3               0.
             1004                4               0.


  Minimum                                        0.
       At Element                              1004
           Int Pt                                 4

  Maximum                                        0.
       At Element                              1004
           Int Pt                                 4

            Total                                0.


          Element              Int            S.S33
            Label               Pt           @Loc 1
----------------------------------------------------
             1001                1               0.
             1001                2               0.
             1001                3               0.
             1001                4               0.
             1002                1               0.
             1002                2               0.
             1002                3               0.
             1002                4               0.
             1003                1               0.
             1003                2               0.
             1003                3               0.
             1003                4               0.
             1004                1               0.
             1004                2               0.
             1004                3               0.
             1004                4               0.


  Minimum                                        0.
       At Element                              1004
           Int Pt                                 4

  Maximum                                        0.
       At Element                              1004
           Int Pt                                 4

            Total                                0.


          Element              Int            S.S12
            Label               Pt           @Loc 1
----------------------------------------------------
             1001                1               0.
             1001                2               0.
             1001                3               0.
             1001                4               0.
             1002                1               0.
             1002                2               0.
             1002                3               0.
             1002                4               0.
             1003                1               0.
             1003                2               0.
             1003                3               0.
             1003                4               0.
             1004                1               0.
             1004                2               0.
             1004                3               0.
             1004                4               0.


  Minimum                                        0.
       At Element                              1004
           Int Pt                                 4

  Maximum                                        0.
       At Element                              1004
           Int Pt                                 4

            Total                                0.


********************************************************************************
Field Output Report, written Tue Apr 15 10:30:36 2025

Source 1
---------

   ODB: C:/lnms/Vid/4ele/stena-4U_starman.odb
   Step: loading
   Frame: Increment      9: Step Time =   0.9000

Loc 1 : Integration point values from source 1

Output sorted by column "Element Label".

Field Output reported at integration points for region: STENA-1.Region_1

          Element              Int            S.S11
            Label               Pt           @Loc 1
----------------------------------------------------
                1                1       737.894775
                1                2       737.894775
                1                3       737.894775
                1                4       737.894775
                2                1       737.894775
                2                2       737.894775
                2                3       737.894775
                2                4       737.894775
                3                1       737.894775
                3                2       737.894775
                3                3       737.894775
                3                4       737.894775
                4                1       737.894775
                4                2       737.894775
                4                3       737.894775
                4                4       737.894775


  Minimum                                   737.895
       At Element                                 4
           Int Pt                                 4

  Maximum                                   737.895
       At Element                                 1
           Int Pt                                 1

            Total                    11.8063164E+03


          Element              Int            S.S22
            Label               Pt           @Loc 1
----------------------------------------------------
                1                1   61.7159978E-03
                1                2   61.7159978E-03
                1                3   61.7159978E-03
                1                4   61.7159978E-03
                2                1   61.7159978E-03
                2                2   61.7159978E-03
                2                3   61.7159978E-03
                2                4   61.7159978E-03
                3                1   61.7159978E-03
                3                2   61.7159978E-03
                3                3   61.7159978E-03
                3                4   61.7159978E-03
                4                1   61.7159978E-03
                4                2   61.7159978E-03
                4                3   61.7159978E-03
                4                4   61.7159978E-03


  Minimum                                61.716E-03
       At Element                                 4
           Int Pt                                 4

  Maximum                                61.716E-03
       At Element                                 1
           Int Pt                                 1

            Total                    987.455964E-03


          Element              Int            S.S33
            Label               Pt           @Loc 1
----------------------------------------------------
                1                1               0.
                1                2               0.
                1                3               0.
                1                4               0.
                2                1               0.
                2                2               0.
                2                3               0.
                2                4               0.
                3                1               0.
                3                2               0.
                3                3               0.
                3                4               0.
                4                1               0.
                4                2               0.
                4                3               0.
                4                4               0.


  Minimum                                        0.
       At Element                                 4
           Int Pt                                 4

  Maximum                                        0.
       At Element                                 4
           Int Pt                                 4

            Total                                0.


          Element              Int            S.S12
            Label               Pt           @Loc 1
----------------------------------------------------
                1                1   2.86518445E-15
                1                2  -18.6166458E-15
                1                3   36.6726777E-15
                1                4   15.1908481E-15
                2                1  -24.7227657E-15
                2                2  -136.657192E-15
                2                3  -135.654996E-15
                2                4  -247.589438E-15
                3                1   28.0743582E-15
                3                2  -72.4639803E-15
                3                3   41.1081115E-15
                3                4  -59.4302236E-15
                4                1  -258.409586E-15
                4                2  -134.081534E-15
                4                3  -208.604117E-15
                4                4  -84.2760852E-15


  Minimum                               -258.41E-15
       At Element                                 4
           Int Pt                                 1

  Maximum                               41.1081E-15
       At Element                                 3
           Int Pt                                 3

            Total                   -1.25659538E-12


Field Output reported at integration points for region: STENA-1.Region_2

          Element              Int            S.S11
            Label               Pt           @Loc 1
----------------------------------------------------
             1001                1               0.
             1001                2               0.
             1001                3               0.
             1001                4               0.
             1002                1               0.
             1002                2               0.
             1002                3               0.
             1002                4               0.
             1003                1               0.
             1003                2               0.
             1003                3               0.
             1003                4               0.
             1004                1               0.
             1004                2               0.
             1004                3               0.
             1004                4               0.


  Minimum                                        0.
       At Element                              1004
           Int Pt                                 4

  Maximum                                        0.
       At Element                              1004
           Int Pt                                 4

            Total                                0.


          Element              Int            S.S22
            Label               Pt           @Loc 1
----------------------------------------------------
             1001                1               0.
             1001                2               0.
             1001                3               0.
             1001                4               0.
             1002                1               0.
             1002                2               0.
             1002                3               0.
             1002                4               0.
             1003                1               0.
             1003                2               0.
             1003                3               0.
             1003                4               0.
             1004                1               0.
             1004                2               0.
             1004                3               0.
             1004                4               0.


  Minimum                                        0.
       At Element                              1004
           Int Pt                                 4

  Maximum                                        0.
       At Element                              1004
           Int Pt                                 4

            Total                                0.


          Element              Int            S.S33
            Label               Pt           @Loc 1
----------------------------------------------------
             1001                1               0.
             1001                2               0.
             1001                3               0.
             1001                4               0.
             1002                1               0.
             1002                2               0.
             1002                3               0.
             1002                4               0.
             1003                1               0.
             1003                2               0.
             1003                3               0.
             1003                4               0.
             1004                1               0.
             1004                2               0.
             1004                3               0.
             1004                4               0.


  Minimum                                        0.
       At Element                              1004
           Int Pt                                 4

  Maximum                                        0.
       At Element                              1004
           Int Pt                                 4

            Total                                0.


          Element              Int            S.S12
            Label               Pt           @Loc 1
----------------------------------------------------
             1001                1               0.
             1001                2               0.
             1001                3               0.
             1001                4               0.
             1002                1               0.
             1002                2               0.
             1002                3               0.
             1002                4               0.
             1003                1               0.
             1003                2               0.
             1003                3               0.
             1003                4               0.
             1004                1               0.
             1004                2               0.
             1004                3               0.
             1004                4               0.


  Minimum                                        0.
       At Element                              1004
           Int Pt                                 4

  Maximum                                        0.
       At Element                              1004
           Int Pt                                 4

            Total                                0.


********************************************************************************
Field Output Report, written Tue Apr 15 10:30:40 2025

Source 1
---------

   ODB: C:/lnms/Vid/4ele/stena-4U_starman.odb
   Step: loading
   Frame: Increment     10: Step Time =    1.000

Loc 1 : Integration point values from source 1

Output sorted by column "Element Label".

Field Output reported at integration points for region: STENA-1.Region_1

          Element              Int            S.S11
            Label               Pt           @Loc 1
----------------------------------------------------
                1                1       788.920837
                1                2       788.920837
                1                3       788.920837
                1                4       788.920837
                2                1       788.920837
                2                2       788.920837
                2                3       788.920837
                2                4       788.920837
                3                1       788.920837
                3                2       788.920837
                3                3       788.920837
                3                4       788.920837
                4                1       788.920837
                4                2       788.920837
                4                3       788.920837
                4                4       788.920837


  Minimum                                   788.921
       At Element                                 4
           Int Pt                                 4

  Maximum                                   788.921
       At Element                                 1
           Int Pt                                 1

            Total                    12.6227334E+03


          Element              Int            S.S22
            Label               Pt           @Loc 1
----------------------------------------------------
                1                1   59.9238686E-03
                1                2   59.9238686E-03
                1                3   59.9238686E-03
                1                4   59.9238686E-03
                2                1   59.9238686E-03
                2                2   59.9238686E-03
                2                3   59.9238686E-03
                2                4   59.9238686E-03
                3                1   59.9238686E-03
                3                2   59.9238686E-03
                3                3   59.9238686E-03
                3                4   59.9238686E-03
                4                1   59.9238686E-03
                4                2   59.9238686E-03
                4                3   59.9238686E-03
                4                4   59.9238686E-03


  Minimum                               59.9239E-03
       At Element                                 4
           Int Pt                                 4

  Maximum                               59.9239E-03
       At Element                                 1
           Int Pt                                 1

            Total                    958.781898E-03


          Element              Int            S.S33
            Label               Pt           @Loc 1
----------------------------------------------------
                1                1               0.
                1                2               0.
                1                3               0.
                1                4               0.
                2                1               0.
                2                2               0.
                2                3               0.
                2                4               0.
                3                1               0.
                3                2               0.
                3                3               0.
                3                4               0.
                4                1               0.
                4                2               0.
                4                3               0.
                4                4               0.


  Minimum                                        0.
       At Element                                 4
           Int Pt                                 4

  Maximum                                        0.
       At Element                                 4
           Int Pt                                 4

            Total                                0.


          Element              Int            S.S12
            Label               Pt           @Loc 1
----------------------------------------------------
                1                1  -27.8009986E-15
                1                2  -123.979833E-15
                1                3  -19.1082095E-15
                1                4  -115.287039E-15
                2                1  -92.9614255E-15
                2                2   132.612386E-15
                2                3  -5.63520347E-15
                2                4   219.938610E-15
                3                1  -33.9184688E-15
                3                2  -167.267540E-15
                3                3  -45.2695268E-15
                3                4  -178.618595E-15
                4                1   79.1286660E-15
                4                2   14.7687377E-15
                4                3  -62.9661050E-15
                4                4  -127.326033E-15


  Minimum                              -178.619E-15
       At Element                                 3
           Int Pt                                 4

  Maximum                               219.939E-15
       At Element                                 2
           Int Pt                                 4

            Total                   -553.690577E-15


Field Output reported at integration points for region: STENA-1.Region_2

          Element              Int            S.S11
            Label               Pt           @Loc 1
----------------------------------------------------
             1001                1               0.
             1001                2               0.
             1001                3               0.
             1001                4               0.
             1002                1               0.
             1002                2               0.
             1002                3               0.
             1002                4               0.
             1003                1               0.
             1003                2               0.
             1003                3               0.
             1003                4               0.
             1004                1               0.
             1004                2               0.
             1004                3               0.
             1004                4               0.


  Minimum                                        0.
       At Element                              1004
           Int Pt                                 4

  Maximum                                        0.
       At Element                              1004
           Int Pt                                 4

            Total                                0.


          Element              Int            S.S22
            Label               Pt           @Loc 1
----------------------------------------------------
             1001                1               0.
             1001                2               0.
             1001                3               0.
             1001                4               0.
             1002                1               0.
             1002                2               0.
             1002                3               0.
             1002                4               0.
             1003                1               0.
             1003                2               0.
             1003                3               0.
             1003                4               0.
             1004                1               0.
             1004                2               0.
             1004                3               0.
             1004                4               0.


  Minimum                                        0.
       At Element                              1004
           Int Pt                                 4

  Maximum                                        0.
       At Element                              1004
           Int Pt                                 4

            Total                                0.


          Element              Int            S.S33
            Label               Pt           @Loc 1
----------------------------------------------------
             1001                1               0.
             1001                2               0.
             1001                3               0.
             1001                4               0.
             1002                1               0.
             1002                2               0.
             1002                3               0.
             1002                4               0.
             1003                1               0.
             1003                2               0.
             1003                3               0.
             1003                4               0.
             1004                1               0.
             1004                2               0.
             1004                3               0.
             1004                4               0.


  Minimum                                        0.
       At Element                              1004
           Int Pt                                 4

  Maximum                                        0.
       At Element                              1004
           Int Pt                                 4

            Total                                0.


          Element              Int            S.S12
            Label               Pt           @Loc 1
----------------------------------------------------
             1001                1               0.
             1001                2               0.
             1001                3               0.
             1001                4               0.
             1002                1               0.
             1002                2               0.
             1002                3               0.
             1002                4               0.
             1003                1               0.
             1003                2               0.
             1003                3               0.
             1003                4               0.
             1004                1               0.
             1004                2               0.
             1004                3               0.
             1004                4               0.


  Minimum                                        0.
       At Element                              1004
           Int Pt                                 4

  Maximum                                        0.
       At Element                              1004
           Int Pt                                 4

            Total                                0.


