********************************************************************************
Field Output Report, written Tue Apr 15 10:56:27 2025

Source 1
---------

   ODB: C:/lnms/Vid/4ele/stena-4U_starman.odb
   Step: loading
   Frame: Increment      0: Step Time =    0.000

Loc 1 : Integration point values from source 1

Output sorted by column "Element Label".

Field Output reported at integration points for region: STENA-1.Region_1

          Element              Int            S.S11            S.S22            S.S33            S.S12
            Label               Pt           @Loc 1           @Loc 1           @Loc 1           @Loc 1
-------------------------------------------------------------------------------------------------------
                1                1               0.               0.               0.               0.
                1                2               0.               0.               0.               0.
                1                3               0.               0.               0.               0.
                1                4               0.               0.               0.               0.
                2                1               0.               0.               0.               0.
                2                2               0.               0.               0.               0.
                2                3               0.               0.               0.               0.
                2                4               0.               0.               0.               0.
                3                1               0.               0.               0.               0.
                3                2               0.               0.               0.               0.
                3                3               0.               0.               0.               0.
                3                4               0.               0.               0.               0.
                4                1               0.               0.               0.               0.
                4                2               0.               0.               0.               0.
                4                3               0.               0.               0.               0.
                4                4               0.               0.               0.               0.


  Minimum                                        0.               0.               0.               0.
       At Element                                 4                4                4                4
           Int Pt                                 4                4                4                4

  Maximum                                        0.               0.               0.               0.
       At Element                                 4                4                4                4
           Int Pt                                 4                4                4                4

            Total                                0.               0.               0.               0.


Field Output reported at integration points for region: STENA-1.Region_2

          Element              Int            S.S11            S.S22            S.S33            S.S12
            Label               Pt           @Loc 1           @Loc 1           @Loc 1           @Loc 1
-------------------------------------------------------------------------------------------------------
             1001                1               0.               0.               0.               0.
             1001                2               0.               0.               0.               0.
             1001                3               0.               0.               0.               0.
             1001                4               0.               0.               0.               0.
             1002                1               0.               0.               0.               0.
             1002                2               0.               0.               0.               0.
             1002                3               0.               0.               0.               0.
             1002                4               0.               0.               0.               0.
             1003                1               0.               0.               0.               0.
             1003                2               0.               0.               0.               0.
             1003                3               0.               0.               0.               0.
             1003                4               0.               0.               0.               0.
             1004                1               0.               0.               0.               0.
             1004                2               0.               0.               0.               0.
             1004                3               0.               0.               0.               0.
             1004                4               0.               0.               0.               0.


  Minimum                                        0.               0.               0.               0.
       At Element                              1004             1004             1004             1004
           Int Pt                                 4                4                4                4

  Maximum                                        0.               0.               0.               0.
       At Element                              1004             1004             1004             1004
           Int Pt                                 4                4                4                4

            Total                                0.               0.               0.               0.


********************************************************************************
Field Output Report, written Tue Apr 15 10:56:31 2025

Source 1
---------

   ODB: C:/lnms/Vid/4ele/stena-4U_starman.odb
   Step: loading
   Frame: Increment      1: Step Time =   0.1000

Loc 1 : Integration point values from source 1

Output sorted by column "Element Label".

Field Output reported at integration points for region: STENA-1.Region_1

          Element              Int            S.S11            S.S22            S.S33            S.S12
            Label               Pt           @Loc 1           @Loc 1           @Loc 1           @Loc 1
-------------------------------------------------------------------------------------------------------
                1                1       194.264908  -3.72638344E-03               0.  -11.7541034E-15
                1                2       194.264908  -3.72638344E-03               0.  -33.5180932E-15
                1                3       194.264908  -3.72638344E-03               0.  -20.7529831E-15
                1                4       194.264908  -3.72638344E-03               0.  -42.5169746E-15
                2                1       194.264908  -3.72638344E-03               0.  -13.2706143E-15
                2                2       194.264908  -3.72638344E-03               0.   7.91760998E-15
                2                3       194.264908  -3.72638344E-03               0.  -29.0186542E-15
                2                4       194.264908  -3.72638344E-03               0.  -7.83043081E-15
                3                1       194.264908  -3.72638344E-03               0.  -12.0097837E-15
                3                2       194.264908  -3.72638344E-03               0.   5.95414483E-15
                3                3       194.264908  -3.72638344E-03               0.  -21.0086634E-15
                3                4       194.264908  -3.72638344E-03               0.  -3.04473510E-15
                4                1       194.264908  -3.72638344E-03               0.   12.7033055E-15
                4                2       194.264908  -3.72638344E-03               0.   6.25471532E-15
                4                3       194.264908  -3.72638344E-03               0.  -3.04473510E-15
                4                4       194.264908  -3.72638344E-03               0.  -9.49332504E-15


  Minimum                                   194.265     -3.72638E-03               0.      -42.517E-15
       At Element                                 4                4                4                1
           Int Pt                                 4                4                4                4

  Maximum                                   194.265     -3.72638E-03               0.      12.7033E-15
       At Element                                 1                1                4                4
           Int Pt                                 1                1                4                1

            Total                    3.10823853E+03  -59.6221350E-03               0.  -174.433320E-15


Field Output reported at integration points for region: STENA-1.Region_2

          Element              Int            S.S11            S.S22            S.S33            S.S12
            Label               Pt           @Loc 1           @Loc 1           @Loc 1           @Loc 1
-------------------------------------------------------------------------------------------------------
             1001                1               0.               0.               0.               0.
             1001                2               0.               0.               0.               0.
             1001                3               0.               0.               0.               0.
             1001                4               0.               0.               0.               0.
             1002                1               0.               0.               0.               0.
             1002                2               0.               0.               0.               0.
             1002                3               0.               0.               0.               0.
             1002                4               0.               0.               0.               0.
             1003                1               0.               0.               0.               0.
             1003                2               0.               0.               0.               0.
             1003                3               0.               0.               0.               0. qq
             1003                4               0.               0.               0.               0.
             1004                1               0.               0.               0.               0.
             1004                2               0.               0.               0.               0.
             1004                3               0.               0.               0.               0.
             1004                4               0.               0.               0.               0.


  Minimum                                        0.               0.               0.               0.
       At Element                              1004             1004             1004             1004
           Int Pt                                 4                4                4                4

  Maximum                                        0.               0.               0.               0.
       At Element                              1004             1004             1004             1004
           Int Pt                                 4                4                4                4

            Total                                0.               0.               0.               0.


********************************************************************************
Field Output Report, written Tue Apr 15 10:56:34 2025

Source 1
---------

   ODB: C:/lnms/Vid/4ele/stena-4U_starman.odb
   Step: loading
   Frame: Increment      2: Step Time =   0.2000

Loc 1 : Integration point values from source 1

Output sorted by column "Element Label".

Field Output reported at integration points for region: STENA-1.Region_1

          Element              Int            S.S11            S.S22            S.S33            S.S12
            Label               Pt           @Loc 1           @Loc 1           @Loc 1           @Loc 1
-------------------------------------------------------------------------------------------------------
                1                1       280.808624   35.9969549E-03               0.  -12.0429357E-15
                1                2       280.808624   35.9969549E-03               0.  -47.9845520E-15
                1                3       280.808624   35.9969549E-03               0.  -12.1677291E-15
                1                4       280.808624   35.9969549E-03               0.  -48.1093470E-15
                2                1       280.808624   35.9969549E-03               0.  -38.5295569E-15
                2                2       280.808624   35.9969549E-03               0.  -17.2306254E-15
                2                3       280.808624   35.9969549E-03               0.  -47.9221562E-15
                2                4       280.808624   35.9969549E-03               0.  -26.6232247E-15
                3                1       280.808624   35.9969549E-03               0.   7.75340756E-15
                3                2       280.808624   35.9969549E-03               0.   15.9224813E-15
                3                3       280.808624   35.9969549E-03               0.   7.62861420E-15
                3                4       280.808624   35.9969549E-03               0.   15.7976879E-15
                4                1       280.808624   35.9969549E-03               0.   12.7937381E-15
                4                2       280.808624   35.9969549E-03               0.   9.94954461E-15
                4                3       280.808624   35.9969549E-03               0.   2.90833527E-15
                4                4       280.808624   35.9969549E-03               0.   64.1410604E-18


  Minimum                                   280.809       35.997E-03               0.     -48.1093E-15
       At Element                                 4                4                4                1
           Int Pt                                 4                4                4                4

  Maximum                                   280.809       35.997E-03               0.      15.9225E-15
       At Element                                 1                1                4                3
           Int Pt                                 1                1                4                2

            Total                    4.49293799E+03   575.951278E-03               0.  -177.792177E-15


Field Output reported at integration points for region: STENA-1.Region_2

          Element              Int            S.S11            S.S22            S.S33            S.S12
            Label               Pt           @Loc 1           @Loc 1           @Loc 1           @Loc 1
-------------------------------------------------------------------------------------------------------
             1001                1               0.               0.               0.               0.
             1001                2               0.               0.               0.               0.
             1001                3               0.               0.               0.               0.
             1001                4               0.               0.               0.               0.
             1002                1               0.               0.               0.               0.
             1002                2               0.               0.               0.               0.
             1002                3               0.               0.               0.               0.
             1002                4               0.               0.               0.               0.
             1003                1               0.               0.               0.               0.
             1003                2               0.               0.               0.               0.
             1003                3               0.               0.               0.               0.
             1003                4               0.               0.               0.               0.
             1004                1               0.               0.               0.               0.
             1004                2               0.               0.               0.               0.
             1004                3               0.               0.               0.               0.
             1004                4               0.               0.               0.               0.


  Minimum                                        0.               0.               0.               0.
       At Element                              1004             1004             1004             1004
           Int Pt                                 4                4                4                4

  Maximum                                        0.               0.               0.               0.
       At Element                              1004             1004             1004             1004
           Int Pt                                 4                4                4                4

            Total                                0.               0.               0.               0.


********************************************************************************
Field Output Report, written Tue Apr 15 10:56:38 2025

Source 1
---------

   ODB: C:/lnms/Vid/4ele/stena-4U_starman.odb
   Step: loading
   Frame: Increment      3: Step Time =   0.3000

Loc 1 : Integration point values from source 1

Output sorted by column "Element Label".

Field Output reported at integration points for region: STENA-1.Region_1

          Element              Int            S.S11            S.S22            S.S33            S.S12
            Label               Pt           @Loc 1           @Loc 1           @Loc 1           @Loc 1
-------------------------------------------------------------------------------------------------------
                1                1       360.420837   56.4863347E-03               0.  -1.39295267E-15
                1                2       360.420837   56.4863347E-03               0.  -7.12263991E-15
                1                3       360.420837   56.4863347E-03               0.   25.3561617E-15
                1                4       360.420837   56.4863347E-03               0.   19.6264751E-15
                2                1       360.420837   56.4863347E-03               0.  -40.5759275E-15
                2                2       360.420837   56.4863347E-03               0.  -23.6777100E-15
                2                3       360.420837   56.4863347E-03               0.  -18.5793374E-15
                2                4       360.420837   56.4863347E-03               0.  -1.68112122E-15
                3                1       360.420837   56.4863347E-03               0.   47.8050488E-15
                3                2       360.420837   56.4863347E-03               0.   13.6114087E-15
                3                3       360.420837   56.4863347E-03               0.   76.9588115E-15
                3                4       360.420837   56.4863347E-03               0.   42.7651756E-15
                4                1       360.420837   56.4863347E-03               0.   5.22481855E-15
                4                2       360.420837   56.4863347E-03               0.   10.2082132E-15
                4                3       360.420837   56.4863347E-03               0.   34.7611005E-15
                4                4       360.420837   56.4863347E-03               0.   39.7444935E-15


  Minimum                                   360.421      56.4863E-03               0.     -40.5759E-15
       At Element                                 4                1                4                2
           Int Pt                                 4                1                4                1

  Maximum                                   360.421      56.4863E-03               0.      76.9588E-15
       At Element                                 1                4                4                3
           Int Pt                                 1                4                4                3

            Total                    5.76673340E+03   903.781354E-03               0.   223.032018E-15


Field Output reported at integration points for region: STENA-1.Region_2

          Element              Int            S.S11            S.S22            S.S33            S.S12
            Label               Pt           @Loc 1           @Loc 1           @Loc 1           @Loc 1
-------------------------------------------------------------------------------------------------------
             1001                1               0.               0.               0.               0.
             1001                2               0.               0.               0.               0.
             1001                3               0.               0.               0.               0.
             1001                4               0.               0.               0.               0.
             1002                1               0.               0.               0.               0.
             1002                2               0.               0.               0.               0.
             1002                3               0.               0.               0.               0.
             1002                4               0.               0.               0.               0.
             1003                1               0.               0.               0.               0.
             1003                2               0.               0.               0.               0.
             1003                3               0.               0.               0.               0.
             1003                4               0.               0.               0.               0.
             1004                1               0.               0.               0.               0.
             1004                2               0.               0.               0.               0.
             1004                3               0.               0.               0.               0.
             1004                4               0.               0.               0.               0.


  Minimum                                        0.               0.               0.               0.
       At Element                              1004             1004             1004             1004
           Int Pt                                 4                4                4                4

  Maximum                                        0.               0.               0.               0.
       At Element                              1004             1004             1004             1004
           Int Pt                                 4                4                4                4

            Total                                0.               0.               0.               0.


********************************************************************************
Field Output Report, written Tue Apr 15 10:56:41 2025

Source 1
---------

   ODB: C:/lnms/Vid/4ele/stena-4U_starman.odb
   Step: loading
   Frame: Increment      4: Step Time =   0.4000

Loc 1 : Integration point values from source 1

Output sorted by column "Element Label".

Field Output reported at integration points for region: STENA-1.Region_1

          Element              Int            S.S11            S.S22            S.S33            S.S12
            Label               Pt           @Loc 1           @Loc 1           @Loc 1           @Loc 1
-------------------------------------------------------------------------------------------------------
                1                1       434.129944   63.6011511E-03               0.  -7.82863849E-15
                1                2       434.129944   63.6011511E-03               0.  -49.8456460E-15
                1                3       434.129944   63.6011511E-03               0.   11.3295502E-15
                1                4       434.129944   63.6011511E-03               0.  -30.6874548E-15
                2                1       434.129944   63.6011511E-03               0.  -39.3576129E-15
                2                2       434.129944   63.6011511E-03               0.  -32.1004345E-15
                2                3       434.129944   63.6011511E-03               0.   16.7747574E-15
                2                4       434.129944   63.6011511E-03               0.   24.0319358E-15
                3                1       434.129944   63.6011511E-03               0.   30.4834757E-15
                3                2       434.129944   63.6011511E-03               0.   6.55885605E-15
                3                3       434.129944   63.6011511E-03               0.   55.2005985E-15
                3                4       434.129944   63.6011511E-03               0.   31.2759767E-15
                4                1       434.129944   63.6011511E-03               0.   54.7631669E-15
                4                2       434.129944   63.6011511E-03               0.   28.9649320E-15
                4                3       434.129944   63.6011511E-03               0.   39.1388582E-15
                4                4       434.129944   63.6011511E-03               0.   13.3406207E-15


  Minimum                                    434.13      63.6012E-03               0.     -49.8456E-15
       At Element                                 4                4                4                1
           Int Pt                                 4                4                4                2

  Maximum                                    434.13      63.6012E-03               0.      55.2006E-15
       At Element                                 1                1                4                3
           Int Pt                                 1                1                4                3

            Total                    6.94607910E+03       1.01761842               0.   152.042941E-15


Field Output reported at integration points for region: STENA-1.Region_2

          Element              Int            S.S11            S.S22            S.S33            S.S12
            Label               Pt           @Loc 1           @Loc 1           @Loc 1           @Loc 1
-------------------------------------------------------------------------------------------------------
             1001                1               0.               0.               0.               0.
             1001                2               0.               0.               0.               0.
             1001                3               0.               0.               0.               0.
             1001                4               0.               0.               0.               0.
             1002                1               0.               0.               0.               0.
             1002                2               0.               0.               0.               0.
             1002                3               0.               0.               0.               0.
             1002                4               0.               0.               0.               0.
             1003                1               0.               0.               0.               0.
             1003                2               0.               0.               0.               0.
             1003                3               0.               0.               0.               0.
             1003                4               0.               0.               0.               0.
             1004                1               0.               0.               0.               0.
             1004                2               0.               0.               0.               0.
             1004                3               0.               0.               0.               0.
             1004                4               0.               0.               0.               0.


  Minimum                                        0.               0.               0.               0.
       At Element                              1004             1004             1004             1004
           Int Pt                                 4                4                4                4

  Maximum                                        0.               0.               0.               0.
       At Element                              1004             1004             1004             1004
           Int Pt                                 4                4                4                4

            Total                                0.               0.               0.               0.


********************************************************************************
Field Output Report, written Tue Apr 15 10:56:44 2025

Source 1
---------

   ODB: C:/lnms/Vid/4ele/stena-4U_starman.odb
   Step: loading
   Frame: Increment      5: Step Time =   0.5000

Loc 1 : Integration point values from source 1

Output sorted by column "Element Label".

Field Output reported at integration points for region: STENA-1.Region_1

          Element              Int            S.S11            S.S22            S.S33            S.S12
            Label               Pt           @Loc 1           @Loc 1           @Loc 1           @Loc 1
-------------------------------------------------------------------------------------------------------
                1                1       502.753540   65.9995228E-03               0.  -10.0909508E-15
                1                2       502.753540   65.9995228E-03               0.  -36.8580898E-15
                1                3       502.753540   65.9995228E-03               0.  -9.50147689E-15
                1                4       502.753540   65.9995228E-03               0.  -36.2686159E-15
                2                1       502.753540   65.9995228E-03               0.  -9.41601381E-15
                2                2       502.753540   65.9995228E-03               0.   27.1506552E-15
                2                3       502.753540   65.9995228E-03               0.  -46.1665448E-15
                2                4       502.753540   65.9995228E-03               0.  -9.59987755E-15
                3                1       502.753540   65.9995228E-03               0.  -10.4203442E-15
                3                2       502.753540   65.9995228E-03               0.   28.2438173E-15
                3                3       502.753540   65.9995228E-03               0.  -43.7346794E-15
                3                4       502.753540   65.9995228E-03               0.  -5.07051668E-15
                4                1       502.753540   65.9995228E-03               0.  -27.9470339E-15
                4                2       502.753540   65.9995228E-03               0.  -23.6459496E-15
                4                3       502.753540   65.9995228E-03               0.  -25.5882047E-15
                4                4       502.753540   65.9995228E-03               0.  -21.2871187E-15


  Minimum                                   502.754      65.9995E-03               0.     -46.1665E-15
       At Element                                 4                1                4                2
           Int Pt                                 4                1                4                3

  Maximum                                   502.754      65.9995E-03               0.      28.2438E-15
       At Element                                 1                4                4                3
           Int Pt                                 1                4                4                2

            Total                    8.04405664E+03       1.05599236               0.  -260.200944E-15


Field Output reported at integration points for region: STENA-1.Region_2

          Element              Int            S.S11            S.S22            S.S33            S.S12
            Label               Pt           @Loc 1           @Loc 1           @Loc 1           @Loc 1
-------------------------------------------------------------------------------------------------------
             1001                1               0.               0.               0.               0.
             1001                2               0.               0.               0.               0.
             1001                3               0.               0.               0.               0.
             1001                4               0.               0.               0.               0.
             1002                1               0.               0.               0.               0.
             1002                2               0.               0.               0.               0.
             1002                3               0.               0.               0.               0.
             1002                4               0.               0.               0.               0.
             1003                1               0.               0.               0.               0.
             1003                2               0.               0.               0.               0.
             1003                3               0.               0.               0.               0.
             1003                4               0.               0.               0.               0.
             1004                1               0.               0.               0.               0.
             1004                2               0.               0.               0.               0.
             1004                3               0.               0.               0.               0.
             1004                4               0.               0.               0.               0.


  Minimum                                        0.               0.               0.               0.
       At Element                              1004             1004             1004             1004
           Int Pt                                 4                4                4                4

  Maximum                                        0.               0.               0.               0.
       At Element                              1004             1004             1004             1004
           Int Pt                                 4                4                4                4

            Total                                0.               0.               0.               0.


********************************************************************************
Field Output Report, written Tue Apr 15 10:56:49 2025

Source 1
---------

   ODB: C:/lnms/Vid/4ele/stena-4U_starman.odb
   Step: loading
   Frame: Increment      6: Step Time =   0.6000

Loc 1 : Integration point values from source 1

Output sorted by column "Element Label".

Field Output reported at integration points for region: STENA-1.Region_1

          Element              Int            S.S11            S.S22            S.S33            S.S12
            Label               Pt           @Loc 1           @Loc 1           @Loc 1           @Loc 1
-------------------------------------------------------------------------------------------------------
                1                1       566.948730   66.0673752E-03               0.  -371.929705E-18
                1                2       566.948730   66.0673752E-03               0.  -1.35850617E-15
                1                3       566.948730   66.0673752E-03               0.  -350.203019E-18
                1                4       566.948730   66.0673752E-03               0.  -1.33677946E-15
                2                1       566.948730   66.0673752E-03               0.   77.7435367E-15
                2                2       566.948730   66.0673752E-03               0.   29.1366188E-15
                2                3       566.948730   66.0673752E-03               0.   61.9677988E-15
                2                4       566.948730   66.0673752E-03               0.   13.3608826E-15
                3                1       566.948730   66.0673752E-03               0.  -384.070414E-18
                3                2       566.948730   66.0673752E-03               0.  -47.7336439E-15
                3                3       566.948730   66.0673752E-03               0.  -14.3458396E-15
                3                4       566.948730   66.0673752E-03               0.  -61.6954133E-15
                4                1       566.948730   66.0673752E-03               0.   7.49773998E-15
                4                2       566.948730   66.0673752E-03               0.   6.47623688E-15
                4                3       566.948730   66.0673752E-03               0.   13.9516203E-15
                4                4       566.948730   66.0673752E-03               0.   12.9301172E-15


  Minimum                                   566.949      66.0674E-03               0.     -61.6954E-15
       At Element                                 4                4                4                3
           Int Pt                                 4                4                4                4

  Maximum                                   566.949      66.0674E-03               0.      77.7435E-15
       At Element                                 1                1                4                2
           Int Pt                                 1                1                4                1

            Total                    9.07117969E+03       1.05707800               0.   95.4881656E-15


Field Output reported at integration points for region: STENA-1.Region_2

          Element              Int            S.S11            S.S22            S.S33            S.S12
            Label               Pt           @Loc 1           @Loc 1           @Loc 1           @Loc 1
-------------------------------------------------------------------------------------------------------
             1001                1               0.               0.               0.               0.
             1001                2               0.               0.               0.               0.
             1001                3               0.               0.               0.               0.
             1001                4               0.               0.               0.               0.
             1002                1               0.               0.               0.               0.
             1002                2               0.               0.               0.               0.
             1002                3               0.               0.               0.               0.
             1002                4               0.               0.               0.               0.
             1003                1               0.               0.               0.               0.
             1003                2               0.               0.               0.               0.
             1003                3               0.               0.               0.               0.
             1003                4               0.               0.               0.               0.
             1004                1               0.               0.               0.               0.
             1004                2               0.               0.               0.               0.
             1004                3               0.               0.               0.               0.
             1004                4               0.               0.               0.               0.


  Minimum                                        0.               0.               0.               0.
       At Element                              1004             1004             1004             1004
           Int Pt                                 4                4                4                4

  Maximum                                        0.               0.               0.               0.
       At Element                              1004             1004             1004             1004
           Int Pt                                 4                4                4                4

            Total                                0.               0.               0.               0.


********************************************************************************
Field Output Report, written Tue Apr 15 10:56:52 2025

Source 1
---------

   ODB: C:/lnms/Vid/4ele/stena-4U_starman.odb
   Step: loading
   Frame: Increment      7: Step Time =   0.7000

Loc 1 : Integration point values from source 1

Output sorted by column "Element Label".

Field Output reported at integration points for region: STENA-1.Region_1

          Element              Int            S.S11            S.S22            S.S33            S.S12
            Label               Pt           @Loc 1           @Loc 1           @Loc 1           @Loc 1
-------------------------------------------------------------------------------------------------------
                1                1       627.252747   65.0179982E-03               0.  -15.7688990E-15
                1                2       627.252747   65.0179982E-03               0.   41.2614008E-15
                1                3       627.252747   65.0179982E-03               0.  -63.0265358E-15
                1                4       627.252747   65.0179982E-03               0.  -5.99623560E-15
                2                1       627.252747   65.0179982E-03               0.   115.554688E-15
                2                2       627.252747   65.0179982E-03               0.   12.2433064E-15
                2                3       627.252747   65.0179982E-03               0.   76.3673521E-15
                2                4       627.252747   65.0179982E-03               0.  -26.9440367E-15
                3                1       627.252747   65.0179982E-03               0.  -35.6773394E-15
                3                2       627.252747   65.0179982E-03               0.   81.7769043E-15
                3                3       627.252747   65.0179982E-03               0.  -81.7877192E-15
                3                4       627.252747   65.0179982E-03               0.   35.6665211E-15
                4                1       627.252747   65.0179982E-03               0.   132.286611E-15
                4                2       627.252747   65.0179982E-03               0.  -31.3960080E-15
                4                3       627.252747   65.0179982E-03               0.  -232.478277E-18
                4                4       627.252747   65.0179982E-03               0.  -163.915092E-15


  Minimum                                   627.253       65.018E-03               0.     -163.915E-15
       At Element                                 4                4                4                4
           Int Pt                                 4                4                4                4

  Maximum                                   627.253       65.018E-03               0.      132.287E-15
       At Element                                 1                4                4                4
           Int Pt                                 1                1                4                1

            Total                    10.0360439E+03       1.04028797               0.   70.4124391E-15


Field Output reported at integration points for region: STENA-1.Region_2

          Element              Int            S.S11            S.S22            S.S33            S.S12
            Label               Pt           @Loc 1           @Loc 1           @Loc 1           @Loc 1
-------------------------------------------------------------------------------------------------------
             1001                1               0.               0.               0.               0.
             1001                2               0.               0.               0.               0.
             1001                3               0.               0.               0.               0.
             1001                4               0.               0.               0.               0.
             1002                1               0.               0.               0.               0.
             1002                2               0.               0.               0.               0.
             1002                3               0.               0.               0.               0.
             1002                4               0.               0.               0.               0.
             1003                1               0.               0.               0.               0.
             1003                2               0.               0.               0.               0.
             1003                3               0.               0.               0.               0.
             1003                4               0.               0.               0.               0.
             1004                1               0.               0.               0.               0.
             1004                2               0.               0.               0.               0.
             1004                3               0.               0.               0.               0.
             1004                4               0.               0.               0.               0.


  Minimum                                        0.               0.               0.               0.
       At Element                              1004             1004             1004             1004
           Int Pt                                 4                4                4                4

  Maximum                                        0.               0.               0.               0.
       At Element                              1004             1004             1004             1004
           Int Pt                                 4                4                4                4

            Total                                0.               0.               0.               0.


********************************************************************************
Field Output Report, written Tue Apr 15 10:56:58 2025

Source 1
---------

   ODB: C:/lnms/Vid/4ele/stena-4U_starman.odb
   Step: loading
   Frame: Increment      8: Step Time =   0.8000

Loc 1 : Integration point values from source 1

Output sorted by column "Element Label".

Field Output reported at integration points for region: STENA-1.Region_1

          Element              Int            S.S11            S.S22            S.S33            S.S12
            Label               Pt           @Loc 1           @Loc 1           @Loc 1           @Loc 1
-------------------------------------------------------------------------------------------------------
                1                1       684.110535   63.4646341E-03               0.  -73.6920358E-15
                1                2       684.110535   63.4646341E-03               0.  -163.851287E-15
                1                3       684.110535   63.4646341E-03               0.  -138.132886E-15
                1                4       684.110535   63.4646341E-03               0.  -228.292130E-15
                2                1       684.110535   63.4646341E-03               0.  -21.3110559E-15
                2                2       684.110535   63.4646341E-03               0.  -25.9330894E-15
                2                3       684.110535   63.4646341E-03               0.  -108.114913E-15
                2                4       684.110535   63.4646341E-03               0.  -112.736948E-15
                3                1       684.110535   63.4646341E-03               0.  -64.2717758E-15
                3                2       684.110535   63.4646341E-03               0.   17.1298675E-15
                3                3       684.110535   63.4646341E-03               0.  -131.716673E-15
                3                4       684.110535   63.4646341E-03               0.  -50.3150276E-15
                4                1       684.110535   63.4646341E-03               0.   91.3826916E-15
                4                2       684.110535   63.4646341E-03               0.  -73.3609340E-15
                4                3       684.110535   63.4646341E-03               0.   99.6588202E-15
                4                4       684.110535   63.4646341E-03               0.  -65.0848055E-15


  Minimum                                   684.111      63.4646E-03               0.     -228.292E-15
       At Element                                 4                1                4                1
           Int Pt                                 4                1                4                4

  Maximum                                   684.111      63.4646E-03               0.      99.6588E-15
       At Element                                 1                4                4                4
           Int Pt                                 1                4                4                3

            Total                    10.9457686E+03       1.01543415               0.  -1.04864218E-12


Field Output reported at integration points for region: STENA-1.Region_2

          Element              Int            S.S11            S.S22            S.S33            S.S12
            Label               Pt           @Loc 1           @Loc 1           @Loc 1           @Loc 1
-------------------------------------------------------------------------------------------------------
             1001                1               0.               0.               0.               0.
             1001                2               0.               0.               0.               0.
             1001                3               0.               0.               0.               0.
             1001                4               0.               0.               0.               0.
             1002                1               0.               0.               0.               0.
             1002                2               0.               0.               0.               0.
             1002                3               0.               0.               0.               0.
             1002                4               0.               0.               0.               0.
             1003                1               0.               0.               0.               0.
             1003                2               0.               0.               0.               0.
             1003                3               0.               0.               0.               0.
             1003                4               0.               0.               0.               0.
             1004                1               0.               0.               0.               0.
             1004                2               0.               0.               0.               0.
             1004                3               0.               0.               0.               0.
             1004                4               0.               0.               0.               0.


  Minimum                                        0.               0.               0.               0.
       At Element                              1004             1004             1004             1004
           Int Pt                                 4                4                4                4

  Maximum                                        0.               0.               0.               0.
       At Element                              1004             1004             1004             1004
           Int Pt                                 4                4                4                4

            Total                                0.               0.               0.               0.


********************************************************************************
Field Output Report, written Tue Apr 15 10:57:04 2025

Source 1
---------

   ODB: C:/lnms/Vid/4ele/stena-4U_starman.odb
   Step: loading
   Frame: Increment      9: Step Time =   0.9000

Loc 1 : Integration point values from source 1

Output sorted by column "Element Label".

Field Output reported at integration points for region: STENA-1.Region_1

          Element              Int            S.S11            S.S22            S.S33            S.S12
            Label               Pt           @Loc 1           @Loc 1           @Loc 1           @Loc 1
-------------------------------------------------------------------------------------------------------
                1                1       737.894775   61.7159978E-03               0.   2.86518445E-15
                1                2       737.894775   61.7159978E-03               0.  -18.6166458E-15
                1                3       737.894775   61.7159978E-03               0.   36.6726777E-15
                1                4       737.894775   61.7159978E-03               0.   15.1908481E-15
                2                1       737.894775   61.7159978E-03               0.  -24.7227657E-15
                2                2       737.894775   61.7159978E-03               0.  -136.657192E-15
                2                3       737.894775   61.7159978E-03               0.  -135.654996E-15
                2                4       737.894775   61.7159978E-03               0.  -247.589438E-15
                3                1       737.894775   61.7159978E-03               0.   28.0743582E-15
                3                2       737.894775   61.7159978E-03               0.  -72.4639803E-15
                3                3       737.894775   61.7159978E-03               0.   41.1081115E-15
                3                4       737.894775   61.7159978E-03               0.  -59.4302236E-15
                4                1       737.894775   61.7159978E-03               0.  -258.409586E-15
                4                2       737.894775   61.7159978E-03               0.  -134.081534E-15
                4                3       737.894775   61.7159978E-03               0.  -208.604117E-15
                4                4       737.894775   61.7159978E-03               0.  -84.2760852E-15


  Minimum                                   737.895       61.716E-03               0.      -258.41E-15
       At Element                                 4                4                4                4
           Int Pt                                 4                4                4                1

  Maximum                                   737.895       61.716E-03               0.      41.1081E-15
       At Element                                 1                1                4                3
           Int Pt                                 1                1                4                3

            Total                    11.8063164E+03   987.455964E-03               0.  -1.25659538E-12


Field Output reported at integration points for region: STENA-1.Region_2

          Element              Int            S.S11            S.S22            S.S33            S.S12
            Label               Pt           @Loc 1           @Loc 1           @Loc 1           @Loc 1
-------------------------------------------------------------------------------------------------------
             1001                1               0.               0.               0.               0.
             1001                2               0.               0.               0.               0.
             1001                3               0.               0.               0.               0.
             1001                4               0.               0.               0.               0.
             1002                1               0.               0.               0.               0.
             1002                2               0.               0.               0.               0.
             1002                3               0.               0.               0.               0.
             1002                4               0.               0.               0.               0.
             1003                1               0.               0.               0.               0.
             1003                2               0.               0.               0.               0.
             1003                3               0.               0.               0.               0.
             1003                4               0.               0.               0.               0.
             1004                1               0.               0.               0.               0.
             1004                2               0.               0.               0.               0.
             1004                3               0.               0.               0.               0.
             1004                4               0.               0.               0.               0.


  Minimum                                        0.               0.               0.               0.
       At Element                              1004             1004             1004             1004
           Int Pt                                 4                4                4                4

  Maximum                                        0.               0.               0.               0.
       At Element                              1004             1004             1004             1004
           Int Pt                                 4                4                4                4

            Total                                0.               0.               0.               0.


********************************************************************************
Field Output Report, written Tue Apr 15 10:57:07 2025

Source 1
---------

   ODB: C:/lnms/Vid/4ele/stena-4U_starman.odb
   Step: loading
   Frame: Increment     10: Step Time =    1.000

Loc 1 : Integration point values from source 1

Output sorted by column "Element Label".

Field Output reported at integration points for region: STENA-1.Region_1

          Element              Int            S.S11            S.S22            S.S33            S.S12
            Label               Pt           @Loc 1           @Loc 1           @Loc 1           @Loc 1
-------------------------------------------------------------------------------------------------------
                1                1       788.920837   59.9238686E-03               0.  -27.8009986E-15
                1                2       788.920837   59.9238686E-03               0.  -123.979833E-15
                1                3       788.920837   59.9238686E-03               0.  -19.1082095E-15
                1                4       788.920837   59.9238686E-03               0.  -115.287039E-15
                2                1       788.920837   59.9238686E-03               0.  -92.9614255E-15
                2                2       788.920837   59.9238686E-03               0.   132.612386E-15
                2                3       788.920837   59.9238686E-03               0.  -5.63520347E-15
                2                4       788.920837   59.9238686E-03               0.   219.938610E-15
                3                1       788.920837   59.9238686E-03               0.  -33.9184688E-15
                3                2       788.920837   59.9238686E-03               0.  -167.267540E-15
                3                3       788.920837   59.9238686E-03               0.  -45.2695268E-15
                3                4       788.920837   59.9238686E-03               0.  -178.618595E-15
                4                1       788.920837   59.9238686E-03               0.   79.1286660E-15
                4                2       788.920837   59.9238686E-03               0.   14.7687377E-15
                4                3       788.920837   59.9238686E-03               0.  -62.9661050E-15
                4                4       788.920837   59.9238686E-03               0.  -127.326033E-15


  Minimum                                   788.921      59.9239E-03               0.     -178.619E-15
       At Element                                 4                4                4                3
           Int Pt                                 4                4                4                4

  Maximum                                   788.921      59.9239E-03               0.      219.939E-15
       At Element                                 1                1                4                2
           Int Pt                                 1                1                4                4

            Total                    12.6227334E+03   958.781898E-03               0.  -553.690577E-15


Field Output reported at integration points for region: STENA-1.Region_2

          Element              Int            S.S11            S.S22            S.S33            S.S12
            Label               Pt           @Loc 1           @Loc 1           @Loc 1           @Loc 1
-------------------------------------------------------------------------------------------------------
             1001                1               0.               0.               0.               0.
             1001                2               0.               0.               0.               0.
             1001                3               0.               0.               0.               0.
             1001                4               0.               0.               0.               0.
             1002                1               0.               0.               0.               0.
             1002                2               0.               0.               0.               0.
             1002                3               0.               0.               0.               0.
             1002                4               0.               0.               0.               0.
             1003                1               0.               0.               0.               0.
             1003                2               0.               0.               0.               0.
             1003                3               0.               0.               0.               0.
             1003                4               0.               0.               0.               0.
             1004                1               0.               0.               0.               0.
             1004                2               0.               0.               0.               0.
             1004                3               0.               0.               0.               0.
             1004                4               0.               0.               0.               0.


  Minimum                                        0.               0.               0.               0.
       At Element                              1004             1004             1004             1004
           Int Pt                                 4                4                4                4

  Maximum                                        0.               0.               0.               0.
       At Element                              1004             1004             1004             1004
           Int Pt                                 4                4                4                4

            Total                                0.               0.               0.               0.


